   4   4   0   0
  0.2505737E+02  0.4150000E-09  0.4149995E-09  0.6720000E-09  0.5000000E-15
  1.000000000000000E-004
  CAR 
 unknown system                          
     10.53099338    -44.16295128  301      6.00460739      1.00000000
    -44.163  0.0000E+00  0.0000E+00
    -43.981  0.0000E+00  0.0000E+00
    -43.798  0.0000E+00  0.0000E+00
    -43.616  0.0000E+00  0.0000E+00
    -43.434  0.0000E+00  0.0000E+00
    -43.251  0.0000E+00  0.0000E+00
    -43.069  0.0000E+00  0.0000E+00
    -42.887  0.0000E+00  0.0000E+00
    -42.704  0.0000E+00  0.0000E+00
    -42.522  0.0000E+00  0.0000E+00
    -42.340  0.0000E+00  0.0000E+00
    -42.158  0.0000E+00  0.0000E+00
    -41.975  0.0000E+00  0.0000E+00
    -41.793  0.2969E-04  0.5412E-05
    -41.611  0.1047E+00  0.1909E-01
    -41.428  0.2223E+00  0.5962E-01
    -41.246  0.2099E-02  0.6000E-01
    -41.064  0.0000E+00  0.6000E-01
    -40.881  0.0000E+00  0.6000E-01
    -40.699  0.0000E+00  0.6000E-01
    -40.517  0.0000E+00  0.6000E-01
    -40.334  0.0000E+00  0.6000E-01
    -40.152  0.0000E+00  0.6000E-01
    -39.970  0.0000E+00  0.6000E-01
    -39.787  0.0000E+00  0.6000E-01
    -39.605  0.0000E+00  0.6000E-01
    -39.423  0.0000E+00  0.6000E-01
    -39.240  0.0000E+00  0.6000E-01
    -39.058  0.0000E+00  0.6000E-01
    -38.876  0.0000E+00  0.6000E-01
    -38.694  0.0000E+00  0.6000E-01
    -38.511  0.0000E+00  0.6000E-01
    -38.329  0.0000E+00  0.6000E-01
    -38.147  0.0000E+00  0.6000E-01
    -37.964  0.0000E+00  0.6000E-01
    -37.782  0.0000E+00  0.6000E-01
    -37.600  0.0000E+00  0.6000E-01
    -37.417  0.0000E+00  0.6000E-01
    -37.235  0.0000E+00  0.6000E-01
    -37.053  0.0000E+00  0.6000E-01
    -36.870  0.0000E+00  0.6000E-01
    -36.688  0.0000E+00  0.6000E-01
    -36.506  0.0000E+00  0.6000E-01
    -36.323  0.0000E+00  0.6000E-01
    -36.141  0.0000E+00  0.6000E-01
    -35.959  0.0000E+00  0.6000E-01
    -35.777  0.0000E+00  0.6000E-01
    -35.594  0.0000E+00  0.6000E-01
    -35.412  0.0000E+00  0.6000E-01
    -35.230  0.0000E+00  0.6000E-01
    -35.047  0.0000E+00  0.6000E-01
    -34.865  0.0000E+00  0.6000E-01
    -34.683  0.0000E+00  0.6000E-01
    -34.500  0.0000E+00  0.6000E-01
    -34.318  0.0000E+00  0.6000E-01
    -34.136  0.0000E+00  0.6000E-01
    -33.953  0.0000E+00  0.6000E-01
    -33.771  0.0000E+00  0.6000E-01
    -33.589  0.0000E+00  0.6000E-01
    -33.406  0.0000E+00  0.6000E-01
    -33.224  0.0000E+00  0.6000E-01
    -33.042  0.0000E+00  0.6000E-01
    -32.860  0.0000E+00  0.6000E-01
    -32.677  0.0000E+00  0.6000E-01
    -32.495  0.0000E+00  0.6000E-01
    -32.313  0.0000E+00  0.6000E-01
    -32.130  0.0000E+00  0.6000E-01
    -31.948  0.0000E+00  0.6000E-01
    -31.766  0.0000E+00  0.6000E-01
    -31.583  0.0000E+00  0.6000E-01
    -31.401  0.0000E+00  0.6000E-01
    -31.219  0.0000E+00  0.6000E-01
    -31.036  0.0000E+00  0.6000E-01
    -30.854  0.0000E+00  0.6000E-01
    -30.672  0.0000E+00  0.6000E-01
    -30.489  0.0000E+00  0.6000E-01
    -30.307  0.0000E+00  0.6000E-01
    -30.125  0.0000E+00  0.6000E-01
    -29.943  0.0000E+00  0.6000E-01
    -29.760  0.0000E+00  0.6000E-01
    -29.578  0.0000E+00  0.6000E-01
    -29.396  0.0000E+00  0.6000E-01
    -29.213  0.0000E+00  0.6000E-01
    -29.031  0.0000E+00  0.6000E-01
    -28.849  0.0000E+00  0.6000E-01
    -28.666  0.0000E+00  0.6000E-01
    -28.484  0.0000E+00  0.6000E-01
    -28.302  0.0000E+00  0.6000E-01
    -28.119  0.0000E+00  0.6000E-01
    -27.937  0.0000E+00  0.6000E-01
    -27.755  0.0000E+00  0.6000E-01
    -27.572  0.0000E+00  0.6000E-01
    -27.390  0.0000E+00  0.6000E-01
    -27.208  0.0000E+00  0.6000E-01
    -27.026  0.0000E+00  0.6000E-01
    -26.843  0.0000E+00  0.6000E-01
    -26.661  0.0000E+00  0.6000E-01
    -26.479  0.0000E+00  0.6000E-01
    -26.296  0.0000E+00  0.6000E-01
    -26.114  0.0000E+00  0.6000E-01
    -25.932  0.0000E+00  0.6000E-01
    -25.749  0.0000E+00  0.6000E-01
    -25.567  0.0000E+00  0.6000E-01
    -25.385  0.0000E+00  0.6000E-01
    -25.202  0.0000E+00  0.6000E-01
    -25.020  0.0000E+00  0.6000E-01
    -24.838  0.0000E+00  0.6000E-01
    -24.655  0.0000E+00  0.6000E-01
    -24.473  0.0000E+00  0.6000E-01
    -24.291  0.0000E+00  0.6000E-01
    -24.109  0.0000E+00  0.6000E-01
    -23.926  0.0000E+00  0.6000E-01
    -23.744  0.0000E+00  0.6000E-01
    -23.562  0.0000E+00  0.6000E-01
    -23.379  0.0000E+00  0.6000E-01
    -23.197  0.0000E+00  0.6000E-01
    -23.015  0.0000E+00  0.6000E-01
    -22.832  0.0000E+00  0.6000E-01
    -22.650  0.0000E+00  0.6000E-01
    -22.468  0.0000E+00  0.6000E-01
    -22.285  0.0000E+00  0.6000E-01
    -22.103  0.0000E+00  0.6000E-01
    -21.921  0.0000E+00  0.6000E-01
    -21.738  0.0000E+00  0.6000E-01
    -21.556  0.0000E+00  0.6000E-01
    -21.374  0.0000E+00  0.6000E-01
    -21.191  0.0000E+00  0.6000E-01
    -21.009  0.0000E+00  0.6000E-01
    -20.827  0.0000E+00  0.6000E-01
    -20.645  0.0000E+00  0.6000E-01
    -20.462  0.0000E+00  0.6000E-01
    -20.280  0.0000E+00  0.6000E-01
    -20.098  0.0000E+00  0.6000E-01
    -19.915  0.0000E+00  0.6000E-01
    -19.733  0.0000E+00  0.6000E-01
    -19.551  0.0000E+00  0.6000E-01
    -19.368  0.0000E+00  0.6000E-01
    -19.186  0.0000E+00  0.6000E-01
    -19.004  0.0000E+00  0.6000E-01
    -18.821  0.0000E+00  0.6000E-01
    -18.639  0.0000E+00  0.6000E-01
    -18.457  0.0000E+00  0.6000E-01
    -18.274  0.0000E+00  0.6000E-01
    -18.092  0.0000E+00  0.6000E-01
    -17.910  0.0000E+00  0.6000E-01
    -17.728  0.0000E+00  0.6000E-01
    -17.545  0.0000E+00  0.6000E-01
    -17.363  0.0000E+00  0.6000E-01
    -17.181  0.0000E+00  0.6000E-01
    -16.998  0.0000E+00  0.6000E-01
    -16.816  0.0000E+00  0.6000E-01
    -16.634  0.0000E+00  0.6000E-01
    -16.451  0.0000E+00  0.6000E-01
    -16.269  0.0000E+00  0.6000E-01
    -16.087  0.0000E+00  0.6000E-01
    -15.904  0.0000E+00  0.6000E-01
    -15.722  0.0000E+00  0.6000E-01
    -15.540  0.0000E+00  0.6000E-01
    -15.357  0.0000E+00  0.6000E-01
    -15.175  0.0000E+00  0.6000E-01
    -14.993  0.0000E+00  0.6000E-01
    -14.811  0.0000E+00  0.6000E-01
    -14.628  0.0000E+00  0.6000E-01
    -14.446  0.0000E+00  0.6000E-01
    -14.264  0.0000E+00  0.6000E-01
    -14.081  0.0000E+00  0.6000E-01
    -13.899  0.0000E+00  0.6000E-01
    -13.717  0.0000E+00  0.6000E-01
    -13.534  0.0000E+00  0.6000E-01
    -13.352  0.0000E+00  0.6000E-01
    -13.170  0.0000E+00  0.6000E-01
    -12.987  0.0000E+00  0.6000E-01
    -12.805  0.0000E+00  0.6000E-01
    -12.623  0.0000E+00  0.6000E-01
    -12.440  0.0000E+00  0.6000E-01
    -12.258  0.0000E+00  0.6000E-01
    -12.076  0.0000E+00  0.6000E-01
    -11.894  0.0000E+00  0.6000E-01
    -11.711  0.0000E+00  0.6000E-01
    -11.529  0.0000E+00  0.6000E-01
    -11.347  0.0000E+00  0.6000E-01
    -11.164  0.0000E+00  0.6000E-01
    -10.982  0.0000E+00  0.6000E-01
    -10.800  0.0000E+00  0.6000E-01
    -10.617  0.0000E+00  0.6000E-01
    -10.435  0.0000E+00  0.6000E-01
    -10.253  0.0000E+00  0.6000E-01
    -10.070  0.0000E+00  0.6000E-01
     -9.888  0.0000E+00  0.6000E-01
     -9.706  0.0000E+00  0.6000E-01
     -9.523  0.0000E+00  0.6000E-01
     -9.341  0.0000E+00  0.6000E-01
     -9.159  0.0000E+00  0.6000E-01
     -8.977  0.0000E+00  0.6000E-01
     -8.794  0.0000E+00  0.6000E-01
     -8.612  0.0000E+00  0.6000E-01
     -8.430  0.0000E+00  0.6000E-01
     -8.247  0.0000E+00  0.6000E-01
     -8.065  0.0000E+00  0.6000E-01
     -7.883  0.0000E+00  0.6000E-01
     -7.700  0.0000E+00  0.6000E-01
     -7.518  0.0000E+00  0.6000E-01
     -7.336  0.0000E+00  0.6000E-01
     -7.153  0.0000E+00  0.6000E-01
     -6.971  0.0000E+00  0.6000E-01
     -6.789  0.0000E+00  0.6000E-01
     -6.606  0.0000E+00  0.6000E-01
     -6.424  0.2999E-08  0.6000E-01
     -6.242  0.3455E-03  0.6006E-01
     -6.060  0.2050E-02  0.6044E-01
     -5.877  0.2558E-02  0.6090E-01
     -5.695  0.9300E-02  0.6260E-01
     -5.513  0.5053E-02  0.6352E-01
     -5.330  0.1149E-01  0.6561E-01
     -5.148  0.1671E-01  0.6866E-01
     -4.966  0.3438E-01  0.7493E-01
     -4.783  0.2763E-01  0.7997E-01
     -4.601  0.1779E-03  0.8000E-01
     -4.419  0.0000E+00  0.8000E-01
     -4.236  0.0000E+00  0.8000E-01
     -4.054  0.0000E+00  0.8000E-01
     -3.872  0.0000E+00  0.8000E-01
     -3.689  0.0000E+00  0.8000E-01
     -3.507  0.0000E+00  0.8000E-01
     -3.325  0.0000E+00  0.8000E-01
     -3.142  0.0000E+00  0.8000E-01
     -2.960  0.0000E+00  0.8000E-01
     -2.778  0.0000E+00  0.8000E-01
     -2.596  0.0000E+00  0.8000E-01
     -2.413  0.0000E+00  0.8000E-01
     -2.231  0.0000E+00  0.8000E-01
     -2.049  0.0000E+00  0.8000E-01
     -1.866  0.0000E+00  0.8000E-01
     -1.684  0.0000E+00  0.8000E-01
     -1.502  0.0000E+00  0.8000E-01
     -1.319  0.0000E+00  0.8000E-01
     -1.137  0.0000E+00  0.8000E-01
     -0.955  0.0000E+00  0.8000E-01
     -0.772  0.0000E+00  0.8000E-01
     -0.590  0.0000E+00  0.8000E-01
     -0.408  0.0000E+00  0.8000E-01
     -0.225  0.0000E+00  0.8000E-01
     -0.043  0.0000E+00  0.8000E-01
      0.139  0.0000E+00  0.8000E-01
      0.321  0.0000E+00  0.8000E-01
      0.504  0.7504E-07  0.8000E-01
      0.686  0.4061E-03  0.8007E-01
      0.868  0.4572E-02  0.8091E-01
      1.051  0.8322E-02  0.8242E-01
      1.233  0.1007E-01  0.8426E-01
      1.415  0.1540E-01  0.8707E-01
      1.598  0.1876E-01  0.9049E-01
      1.780  0.1494E-01  0.9321E-01
      1.962  0.9903E-02  0.9502E-01
      2.145  0.6209E-02  0.9615E-01
      2.327  0.9098E-02  0.9781E-01
      2.509  0.1596E-01  0.1007E+00
      2.692  0.1288E-01  0.1031E+00
      2.874  0.1603E-01  0.1060E+00
      3.056  0.2142E-01  0.1099E+00
      3.238  0.1846E-01  0.1133E+00
      3.421  0.2685E-01  0.1182E+00
      3.603  0.5419E-01  0.1280E+00
      3.785  0.2481E-01  0.1326E+00
      3.968  0.9842E-02  0.1344E+00
      4.150  0.1717E-01  0.1375E+00
      4.332  0.6565E-02  0.1387E+00
      4.515  0.2410E-02  0.1391E+00
      4.697  0.1640E-02  0.1394E+00
      4.879  0.4307E-02  0.1402E+00
      5.062  0.8839E-02  0.1418E+00
      5.244  0.1347E-01  0.1443E+00
      5.426  0.2570E-01  0.1490E+00
      5.609  0.3674E-01  0.1557E+00
      5.791  0.7030E-01  0.1685E+00
      5.973  0.1015E+00  0.1870E+00
      6.155  0.7387E-01  0.2004E+00
      6.338  0.3358E-01  0.2066E+00
      6.520  0.4583E-01  0.2149E+00
      6.702  0.1677E-01  0.2180E+00
      6.885  0.2253E-01  0.2221E+00
      7.067  0.2627E-01  0.2269E+00
      7.249  0.1538E-01  0.2297E+00
      7.432  0.2373E-01  0.2340E+00
      7.614  0.2040E-01  0.2377E+00
      7.796  0.4485E-02  0.2385E+00
      7.979  0.5615E-02  0.2396E+00
      8.161  0.2372E-02  0.2400E+00
      8.343  0.5088E-06  0.2400E+00
      8.526  0.0000E+00  0.2400E+00
      8.708  0.0000E+00  0.2400E+00
      8.890  0.0000E+00  0.2400E+00
      9.072  0.0000E+00  0.2400E+00
      9.255  0.0000E+00  0.2400E+00
      9.437  0.0000E+00  0.2400E+00
      9.619  0.0000E+00  0.2400E+00
      9.802  0.0000E+00  0.2400E+00
      9.984  0.0000E+00  0.2400E+00
     10.166  0.0000E+00  0.2400E+00
     10.349  0.0000E+00  0.2400E+00
     10.531  0.0000E+00  0.2400E+00
