    4    4  200    1
  0.2505737E+02  0.4150000E-09  0.4149995E-09  0.6720000E-09  0.5000000E-15
  1.000000000000000E-004
  CAR 
 unknown system                          
     38     30     24
 
  0.0000000E+00  0.0000000E+00  0.0000000E+00  0.7812500E-02
      1        -41.676863   1.000000
      2        -41.662045   1.000000
      3        -41.511100   1.000000
      4        -41.511077   1.000000
      5        -41.509789   1.000000
      6        -41.509766   1.000000
      7         -6.270550   1.000000
      8         -5.097935   1.000000
      9          0.630165   1.000000
     10          3.447486   1.000000
     11          3.447489   1.000000
     12          4.835053   1.000000
     13          5.390238   1.000000
     14          5.390241   1.000000
     15          5.432197   1.000000
     16          5.432198   1.000000
     17          5.508666   1.000000
     18          5.508667   1.000000
     19          5.602906   1.000000
     20          5.937926   0.970355
     21          5.937938   0.970333
     22          6.496811   0.000000
     23          8.044903   0.000000
     24          8.044905   0.000000
 
  0.2500000E+00  0.4550410E-16  0.0000000E+00  0.4687500E-01
      1        -41.676751   1.000000
      2        -41.661946   1.000000
      3        -41.511812   1.000000
      4        -41.511335   1.000000
      5        -41.510476   1.000000
      6        -41.509978   1.000000
      7         -5.829117   1.000000
      8         -4.941805   1.000000
      9          1.299452   1.000000
     10          2.368959   1.000000
     11          2.879549   1.000000
     12          3.425102   1.000000
     13          4.126269   1.000000
     14          4.247604   1.000000
     15          4.936692   1.000000
     16          5.670185   1.000000
     17          5.761890   1.000000
     18          5.811810   1.000000
     19          5.953344   0.926465
     20          6.032391   0.215981
     21          6.420143   0.000000
     22          6.725296   0.000000
     23          7.099510   0.000000
     24          7.870112   0.000000
 
  0.5000000E+00  0.9100819E-16  0.0000000E+00  0.2343750E-01
      1        -41.676601   1.000000
      2        -41.661813   1.000000
      3        -41.512501   1.000000
      4        -41.511515   1.000000
      5        -41.511085   1.000000
      6        -41.510126   1.000000
      7         -5.124236   1.000000
      8         -4.923169   1.000000
      9          0.808841   1.000000
     10          2.105299   1.000000
     11          2.753788   1.000000
     12          2.968221   1.000000
     13          3.415404   1.000000
     14          3.723372   1.000000
     15          4.807585   1.000000
     16          5.645489   1.000000
     17          5.782282   1.000000
     18          5.862385   0.999971
     19          5.901127   0.998288
     20          6.051640   0.091711
     21          6.090857   0.007353
     22          6.369985   0.000000
     23          7.090800   0.000000
     24          8.023637   0.000000
 
  0.0000000E+00  0.1250000E+00  0.0000000E+00  0.1562500E-01
      1        -41.676805   1.000000
      2        -41.662029   1.000000
      3        -41.511366   1.000000
      4        -41.511166   1.000000
      5        -41.509997   1.000000
      6        -41.509849   1.000000
      7         -6.152838   1.000000
      8         -5.050546   1.000000
      9          0.802716   1.000000
     10          3.210341   1.000000
     11          3.441103   1.000000
     12          4.082507   1.000000
     13          4.788292   1.000000
     14          4.799037   1.000000
     15          4.985360   1.000000
     16          5.556760   1.000000
     17          5.663684   1.000000
     18          5.866785   0.999952
     19          5.889807   0.999417
     20          5.938887   0.968475
     21          6.422132   0.000000
     22          6.487646   0.000000
     23          7.390001   0.000000
     24          7.925158   0.000000
 
  0.2500000E+00  0.1250000E+00  0.0000000E+00  0.3125000E-01
      1        -41.676663   1.000000
      2        -41.661885   1.000000
      3        -41.512099   1.000000
      4        -41.511481   1.000000
      5        -41.510740   1.000000
      6        -41.510115   1.000000
      7         -5.553508   1.000000
      8         -4.875984   1.000000
      9          1.757638   1.000000
     10          1.778526   1.000000
     11          2.443379   1.000000
     12          3.189954   1.000000
     13          3.696254   1.000000
     14          3.768976   1.000000
     15          5.101064   1.000000
     16          5.747946   1.000000
     17          5.789372   1.000000
     18          5.873115   0.999900
     19          5.971634   0.824493
     20          6.000154   0.550116
     21          6.347695   0.000000
     22          6.677036   0.000000
     23          7.252458   0.000000
     24          7.330974   0.000000
 
  0.5000000E+00  0.1250000E+00  0.0000000E+00  0.3125000E-01
      1        -41.676591   1.000000
      2        -41.661819   1.000000
      3        -41.512395   1.000000
      4        -41.511604   1.000000
      5        -41.510983   1.000000
      6        -41.510250   1.000000
      7         -5.172897   1.000000
      8         -4.874797   1.000000
      9          0.985058   1.000000
     10          2.182650   1.000000
     11          2.520258   1.000000
     12          3.092755   1.000000
     13          3.247535   1.000000
     14          3.355425   1.000000
     15          5.142765   1.000000
     16          5.696838   1.000000
     17          5.819098   1.000000
     18          5.879838   0.999791
     19          5.902587   0.998046
     20          6.052685   0.086941
     21          6.121559   0.000470
     22          6.486990   0.000000
     23          7.085929   0.000000
     24          7.369884   0.000000
 
 -0.2500000E+00  0.1250000E+00  0.0000000E+00  0.1562500E-01
      1        -41.676753   1.000000
      2        -41.661951   1.000000
      3        -41.511656   1.000000
      4        -41.511315   1.000000
      5        -41.510292   1.000000
      6        -41.509925   1.000000
      7         -5.931670   1.000000
      8         -4.971505   1.000000
      9          1.137507   1.000000
     10          2.845389   1.000000
     11          3.031449   1.000000
     12          3.362602   1.000000
     13          4.202245   1.000000
     14          4.294452   1.000000
     15          5.038265   1.000000
     16          5.643126   1.000000
     17          5.796170   1.000000
     18          5.836405   0.999999
     19          5.939212   0.967818
     20          6.036913   0.180428
     21          6.453487   0.000000
     22          6.953872   0.000000
     23          7.139138   0.000000
     24          7.398970   0.000000
 
  0.2500000E+00  0.2500000E+00  0.0000000E+00  0.4687500E-01
      1        -41.676578   1.000000
      2        -41.661821   1.000000
      3        -41.512257   1.000000
      4        -41.511747   1.000000
      5        -41.510869   1.000000
      6        -41.510347   1.000000
      7         -5.209103   1.000000
      8         -4.838915   1.000000
      9          1.253454   1.000000
     10          2.172951   1.000000
     11          2.401724   1.000000
     12          2.677843   1.000000
     13          3.238122   1.000000
     14          3.411236   1.000000
     15          5.300081   1.000000
     16          5.788109   1.000000
     17          5.789462   1.000000
     18          5.886665   0.999575
     19          5.909006   0.996575
     20          6.057545   0.067156
     21          6.225098   0.000000
     22          6.774758   0.000000
     23          6.806969   0.000000
     24          7.075523   0.000000
 
  0.0000000E+00  0.3750000E+00  0.0000000E+00  0.1562500E-01
      1        -41.676642   1.000000
      2        -41.661845   1.000000
      3        -41.512334   1.000000
      4        -41.511435   1.000000
      5        -41.510941   1.000000
      6        -41.510087   1.000000
      7         -5.403596   1.000000
      8         -4.872884   1.000000
      9          1.252807   1.000000
     10          2.040777   1.000000
     11          2.315596   1.000000
     12          3.413467   1.000000
     13          3.540956   1.000000
     14          3.866119   1.000000
     15          4.857316   1.000000
     16          5.725191   1.000000
     17          5.759526   1.000000
     18          5.847203   0.999996
     19          5.953104   0.927404
     20          6.008460   0.456609
     21          6.239148   0.000000
     22          6.413991   0.000000
     23          7.197108   0.000000
     24          7.968031   0.000000
 
  0.2500000E+00  0.3750000E+00  0.0000000E+00  0.1562500E-01
      1        -41.676528   1.000000
      2        -41.661789   1.000000
      3        -41.512287   1.000000
      4        -41.511897   1.000000
      5        -41.510859   1.000000
      6        -41.510482   1.000000
      7         -4.990627   1.000000
      8         -4.883802   1.000000
      9          0.998322   1.000000
     10          2.234037   1.000000
     11          2.360785   1.000000
     12          2.913081   1.000000
     13          3.038314   1.000000
     14          3.100502   1.000000
     15          5.391465   1.000000
     16          5.760219   1.000000
     17          5.850156   0.999994
     18          5.851326   0.999993
     19          5.855645   0.999987
     20          5.978240   0.772101
     21          6.264695   0.000000
     22          6.649884   0.000000
     23          6.800603   0.000000
     24          6.826871   0.000000
 
  0.0000000E+00  0.0000000E+00  0.2500000E+00  0.1562500E-01
      1        -41.674653   1.000000
      2        -41.664177   1.000000
      3        -41.510904   1.000000
      4        -41.510881   1.000000
      5        -41.509972   1.000000
      6        -41.509949   1.000000
      7         -6.135876   1.000000
      8         -5.322044   1.000000
      9          1.165395   1.000000
     10          3.589400   1.000000
     11          3.589403   1.000000
     12          4.151019   1.000000
     13          4.654914   1.000000
     14          4.654916   1.000000
     15          5.337018   1.000000
     16          5.455509   1.000000
     17          5.455513   1.000000
     18          5.791425   1.000000
     19          5.791429   1.000000
     20          6.217368   0.000000
     21          6.434213   0.000000
     22          6.434219   0.000000
     23          7.844326   0.000000
     24          7.844329   0.000000
 
  0.2500000E+00  0.4550410E-16  0.2500000E+00  0.9375000E-01
      1        -41.674552   1.000000
      2        -41.664094   1.000000
      3        -41.511622   1.000000
      4        -41.511133   1.000000
      5        -41.510681   1.000000
      6        -41.510166   1.000000
      7         -5.719437   1.000000
      8         -5.097511   1.000000
      9          1.492744   1.000000
     10          2.386228   1.000000
     11          2.913394   1.000000
     12          3.520651   1.000000
     13          3.992669   1.000000
     14          4.091146   1.000000
     15          5.122019   1.000000
     16          5.640839   1.000000
     17          5.663623   1.000000
     18          5.854533   0.999989
     19          5.955863   0.916008
     20          6.294639   0.000000
     21          6.386024   0.000000
     22          6.430586   0.000000
     23          6.947584   0.000000
     24          7.578509   0.000000
 
  0.5000000E+00  0.9100819E-16  0.2500000E+00  0.4687500E-01
      1        -41.674447   1.000000
      2        -41.664011   1.000000
      3        -41.512305   1.000000
      4        -41.511320   1.000000
      5        -41.511312   1.000000
      6        -41.510346   1.000000
      7         -5.090998   1.000000
      8         -4.948036   1.000000
      9          0.802487   1.000000
     10          1.548685   1.000000
     11          3.021640   1.000000
     12          3.401234   1.000000
     13          3.453041   1.000000
     14          3.667856   1.000000
     15          4.975476   1.000000
     16          5.605921   1.000000
     17          5.891986   0.999277
     18          5.919641   0.991874
     19          5.956244   0.914332
     20          6.049934   0.099918
     21          6.079475   0.017106
     22          6.533568   0.000000
     23          7.248259   0.000000
     24          7.474360   0.000000
 
  0.0000000E+00  0.1250000E+00  0.2500000E+00  0.3125000E-01
      1        -41.674646   1.000000
      2        -41.664169   1.000000
      3        -41.511158   1.000000
      4        -41.510973   1.000000
      5        -41.510215   1.000000
      6        -41.510027   1.000000
      7         -6.023974   1.000000
      8         -5.256955   1.000000
      9          1.274149   1.000000
     10          3.361519   1.000000
     11          3.570336   1.000000
     12          3.596069   1.000000
     13          4.322701   1.000000
     14          4.462424   1.000000
     15          5.315521   1.000000
     16          5.509848   1.000000
     17          5.737700   1.000000
     18          5.807252   1.000000
     19          5.923914   0.988766
     20          6.152459   0.000014
     21          6.249445   0.000000
     22          6.460106   0.000000
     23          7.289707   0.000000
     24          7.723393   0.000000
 
  0.2500000E+00  0.1250000E+00  0.2500000E+00  0.6250000E-01
      1        -41.674492   1.000000
      2        -41.664037   1.000000
      3        -41.511901   1.000000
      4        -41.511278   1.000000
      5        -41.510923   1.000000
      6        -41.510300   1.000000
      7         -5.464647   1.000000
      8         -4.987180   1.000000
      9          1.535061   1.000000
     10          1.843063   1.000000
     11          2.825165   1.000000
     12          3.229233   1.000000
     13          3.599220   1.000000
     14          3.777561   1.000000
     15          5.234935   1.000000
     16          5.593599   1.000000
     17          5.723123   1.000000
     18          5.895802   0.998956
     19          5.937574   0.971019
     20          6.186029   0.000000
     21          6.280449   0.000000
     22          6.587558   0.000000
     23          6.884806   0.000000
     24          7.483534   0.000000
 
  0.5000000E+00  0.1250000E+00  0.2500000E+00  0.6250000E-01
      1        -41.674428   1.000000
      2        -41.663983   1.000000
      3        -41.512190   1.000000
      4        -41.511392   1.000000
      5        -41.511195   1.000000
      6        -41.510429   1.000000
      7         -5.127605   1.000000
      8         -4.916171   1.000000
      9          0.993036   1.000000
     10          1.661764   1.000000
     11          2.822064   1.000000
     12          3.225491   1.000000
     13          3.295972   1.000000
     14          3.504229   1.000000
     15          5.218022   1.000000
     16          5.621059   1.000000
     17          5.799787   1.000000
     18          5.910047   0.996259
     19          5.997493   0.579736
     20          6.047198   0.114171
     21          6.097439   0.004324
     22          6.686871   0.000000
     23          6.892227   0.000000
     24          7.378437   0.000000
 
 -0.2500000E+00  0.1250000E+00  0.2500000E+00  0.3125000E-01
      1        -41.674593   1.000000
      2        -41.664123   1.000000
      3        -41.511463   1.000000
      4        -41.511115   1.000000
      5        -41.510509   1.000000
      6        -41.510161   1.000000
      7         -5.815308   1.000000
      8         -5.143855   1.000000
      9          1.450265   1.000000
     10          2.774469   1.000000
     11          3.060245   1.000000
     12          3.453178   1.000000
     13          4.060323   1.000000
     14          4.092001   1.000000
     15          5.296069   1.000000
     16          5.508113   1.000000
     17          5.716943   1.000000
     18          5.820160   1.000000
     19          5.983218   0.727404
     20          6.244273   0.000000
     21          6.432559   0.000000
     22          6.474811   0.000000
     23          6.932568   0.000000
     24          7.452370   0.000000
 
  0.2500000E+00  0.2500000E+00  0.2500000E+00  0.9375000E-01
      1        -41.674444   1.000000
      2        -41.663986   1.000000
      3        -41.512048   1.000000
      4        -41.511541   1.000000
      5        -41.511075   1.000000
      6        -41.510574   1.000000
      7         -5.155336   1.000000
      8         -4.893192   1.000000
      9          1.318033   1.000000
     10          1.697979   1.000000
     11          2.545198   1.000000
     12          3.018038   1.000000
     13          3.063475   1.000000
     14          3.561632   1.000000
     15          5.393914   1.000000
     16          5.611470   1.000000
     17          5.747412   1.000000
     18          5.909080   0.996553
     19          6.012023   0.416937
     20          6.073510   0.025657
     21          6.105235   0.002212
     22          6.518186   0.000000
     23          6.861974   0.000000
     24          7.540753   0.000000
 
  0.0000000E+00  0.3750000E+00  0.2500000E+00  0.3125000E-01
      1        -41.674454   1.000000
      2        -41.664027   1.000000
      3        -41.512123   1.000000
      4        -41.511246   1.000000
      5        -41.511125   1.000000
      6        -41.510254   1.000000
      7         -5.330420   1.000000
      8         -4.955173   1.000000
      9          1.172584   1.000000
     10          1.699471   1.000000
     11          2.807206   1.000000
     12          3.470108   1.000000
     13          3.637906   1.000000
     14          3.786420   1.000000
     15          5.009779   1.000000
     16          5.613707   1.000000
     17          5.788536   1.000000
     18          5.914043   0.994790
     19          5.947071   0.948171
     20          6.145006   0.000036
     21          6.194199   0.000000
     22          6.462549   0.000000
     23          7.310982   0.000000
     24          7.506705   0.000000
 
  0.2500000E+00  0.3750000E+00  0.2500000E+00  0.3125000E-01
      1        -41.674419   1.000000
      2        -41.663961   1.000000
      3        -41.512081   1.000000
      4        -41.511695   1.000000
      5        -41.511080   1.000000
      6        -41.510700   1.000000
      7         -4.971519   1.000000
      8         -4.895698   1.000000
      9          1.131940   1.000000
     10          1.884510   1.000000
     11          2.149012   1.000000
     12          2.723055   1.000000
     13          3.281879   1.000000
     14          3.395045   1.000000
     15          5.457641   1.000000
     16          5.678793   1.000000
     17          5.725990   1.000000
     18          5.915839   0.993976
     19          5.932235   0.979671
     20          6.004007   0.506779
     21          6.173008   0.000001
     22          6.460387   0.000000
     23          7.035793   0.000000
     24          7.325466   0.000000
 
  0.0000000E+00  0.0000000E+00  0.5000000E+00  0.7812500E-02
      1        -41.669441   1.000000
      2        -41.669441   1.000000
      3        -41.510451   1.000000
      4        -41.510451   1.000000
      5        -41.510428   1.000000
      6        -41.510428   1.000000
      7         -5.770483   1.000000
      8         -5.770483   1.000000
      9          2.509223   1.000000
     10          2.509223   1.000000
     11          4.003771   1.000000
     12          4.003771   1.000000
     13          4.003774   1.000000
     14          4.003774   1.000000
     15          5.620639   1.000000
     16          5.620639   1.000000
     17          5.620643   1.000000
     18          5.620643   1.000000
     19          5.695138   1.000000
     20          5.695138   1.000000
     21          7.264450   0.000000
     22          7.264450   0.000000
     23          7.264454   0.000000
     24          7.264454   0.000000
 
  0.2500000E+00  0.4550410E-16  0.5000000E+00  0.4687500E-01
      1        -41.669336   1.000000
      2        -41.669336   1.000000
      3        -41.511145   1.000000
      4        -41.511145   1.000000
      5        -41.510639   1.000000
      6        -41.510639   1.000000
      7         -5.430692   1.000000
      8         -5.430692   1.000000
      9          1.944713   1.000000
     10          1.944713   1.000000
     11          3.529486   1.000000
     12          3.529486   1.000000
     13          3.777765   1.000000
     14          3.777765   1.000000
     15          5.417848   1.000000
     16          5.417848   1.000000
     17          5.721789   1.000000
     18          5.721789   1.000000
     19          6.080536   0.015873
     20          6.080536   0.015873
     21          6.473090   0.000000
     22          6.473090   0.000000
     23          6.980141   0.000000
     24          6.980141   0.000000
 
  0.5000000E+00  0.9100819E-16  0.5000000E+00  0.2343750E-01
      1        -41.669211   1.000000
      2        -41.669211   1.000000
      3        -41.511820   1.000000
      4        -41.511820   1.000000
      5        -41.510809   1.000000
      6        -41.510809   1.000000
      7         -5.015342   1.000000
      8         -5.015342   1.000000
      9          0.995144   1.000000
     10          0.995144   1.000000
     11          3.444765   1.000000
     12          3.444765   1.000000
     13          3.552083   1.000000
     14          3.552083   1.000000
     15          5.347443   1.000000
     16          5.347443   1.000000
     17          5.963186   0.879314
     18          5.963186   0.879313
     19          5.965424   0.866125
     20          5.965424   0.866125
     21          6.633149   0.000000
     22          6.633149   0.000000
     23          7.059201   0.000000
     24          7.059201   0.000000
 
  0.0000000E+00  0.1250000E+00  0.5000000E+00  0.1562500E-01
      1        -41.669419   1.000000
      2        -41.669419   1.000000
      3        -41.510680   1.000000
      4        -41.510680   1.000000
      5        -41.510506   1.000000
      6        -41.510506   1.000000
      7         -5.676872   1.000000
      8         -5.676872   1.000000
      9          2.407251   1.000000
     10          2.407251   1.000000
     11          3.790120   1.000000
     12          3.790120   1.000000
     13          3.938473   1.000000
     14          3.938473   1.000000
     15          5.559563   1.000000
     16          5.559563   1.000000
     17          5.639430   1.000000
     18          5.639430   1.000000
     19          5.850986   0.999993
     20          5.850986   0.999993
     21          6.823104   0.000000
     22          6.823104   0.000000
     23          7.180172   0.000000
     24          7.180172   0.000000
 
  0.2500000E+00  0.1250000E+00  0.5000000E+00  0.3125000E-01
      1        -41.669282   1.000000
      2        -41.669282   1.000000
      3        -41.511411   1.000000
      4        -41.511411   1.000000
      5        -41.510793   1.000000
      6        -41.510793   1.000000
      7         -5.236953   1.000000
      8         -5.236953   1.000000
      9          1.611522   1.000000
     10          1.611522   1.000000
     11          3.323283   1.000000
     12          3.323283   1.000000
     13          3.579014   1.000000
     14          3.579014   1.000000
     15          5.437437   1.000000
     16          5.437437   1.000000
     17          5.757627   1.000000
     18          5.757627   1.000000
     19          6.063767   0.047136
     20          6.063767   0.047136
     21          6.358242   0.000000
     22          6.358242   0.000000
     23          7.049781   0.000000
     24          7.049781   0.000000
 
  0.5000000E+00  0.1250000E+00  0.5000000E+00  0.3125000E-01
      1        -41.669217   1.000000
      2        -41.669217   1.000000
      3        -41.511684   1.000000
      4        -41.511684   1.000000
      5        -41.510922   1.000000
      6        -41.510922   1.000000
      7         -5.019963   1.000000
      8         -5.019963   1.000000
      9          1.176688   1.000000
     10          1.176688   1.000000
     11          3.058325   1.000000
     12          3.058325   1.000000
     13          3.565846   1.000000
     14          3.565846   1.000000
     15          5.428197   1.000000
     16          5.428197   1.000000
     17          5.894017   0.999120
     18          5.894017   0.999120
     19          5.963153   0.879505
     20          5.963153   0.879505
     21          6.385359   0.000000
     22          6.385359   0.000000
     23          7.329537   0.000000
     24          7.329537   0.000000
 
 -0.2500000E+00  0.1250000E+00  0.5000000E+00  0.1562500E-01
      1        -41.669352   1.000000
      2        -41.669352   1.000000
      3        -41.510974   1.000000
      4        -41.510974   1.000000
      5        -41.510634   1.000000
      6        -41.510634   1.000000
      7         -5.506361   1.000000
      8         -5.506361   1.000000
      9          2.133724   1.000000
     10          2.133724   1.000000
     11          3.613007   1.000000
     12          3.613007   1.000000
     13          3.736412   1.000000
     14          3.736412   1.000000
     15          5.514622   1.000000
     16          5.514622   1.000000
     17          5.639653   1.000000
     18          5.639653   1.000000
     19          6.065817   0.041702
     20          6.065817   0.041702
     21          6.421479   0.000000
     22          6.421479   0.000000
     23          7.059372   0.000000
     24          7.059372   0.000000
 
  0.2500000E+00  0.2500000E+00  0.5000000E+00  0.4687500E-01
      1        -41.669228   1.000000
      2        -41.669228   1.000000
      3        -41.511553   1.000000
      4        -41.511553   1.000000
      5        -41.511052   1.000000
      6        -41.511052   1.000000
      7         -5.024555   1.000000
      8         -5.024555   1.000000
      9          1.438280   1.000000
     10          1.438280   1.000000
     11          2.631213   1.000000
     12          2.631213   1.000000
     13          3.562844   1.000000
     14          3.562844   1.000000
     15          5.514065   1.000000
     16          5.514065   1.000000
     17          5.821481   1.000000
     18          5.821481   1.000000
     19          5.961297   0.889714
     20          5.961297   0.889714
     21          6.274237   0.000000
     22          6.274238   0.000000
     23          7.423148   0.000000
     24          7.423148   0.000000
 
  0.0000000E+00  0.3750000E+00  0.5000000E+00  0.1562500E-01
      1        -41.669253   1.000000
      2        -41.669253   1.000000
      3        -41.511623   1.000000
      4        -41.511623   1.000000
      5        -41.510742   1.000000
      6        -41.510742   1.000000
      7         -5.147377   1.000000
      8         -5.147377   1.000000
      9          1.291808   1.000000
     10          1.291808   1.000000
     11          3.458919   1.000000
     12          3.458919   1.000000
     13          3.617477   1.000000
     14          3.617477   1.000000
     15          5.344983   1.000000
     16          5.344983   1.000000
     17          5.868355   0.999942
     18          5.868355   0.999942
     19          6.007185   0.470942
     20          6.007185   0.470942
     21          6.753664   0.000000
     22          6.753664   0.000000
     23          6.785739   0.000000
     24          6.785739   0.000000
 
  0.2500000E+00  0.3750000E+00  0.5000000E+00  0.1562500E-01
      1        -41.669205   1.000000
      2        -41.669205   1.000000
      3        -41.511591   1.000000
      4        -41.511591   1.000000
      5        -41.511210   1.000000
      6        -41.511210   1.000000
      7         -4.930007   1.000000
      8         -4.930007   1.000000
      9          1.451909   1.000000
     10          1.451909   1.000000
     11          2.236030   1.000000
     12          2.236030   1.000000
     13          3.562077   1.000000
     14          3.562077   1.000000
     15          5.569170   1.000000
     16          5.569170   1.000000
     17          5.767252   1.000000
     18          5.767252   1.000000
     19          6.026921   0.263977
     20          6.026921   0.263977
     21          6.223300   0.000000
     22          6.223300   0.000000
     23          7.705395   0.000000
     24          7.705395   0.000000
