       N       E                     dE             d eps       ncg     rms          rms(c)
DAV:   1     0.233446489321E+03    0.23345E+03   -0.20994E+04  1728   0.150E+03
DAV:   2    -0.955109442165E+01   -0.24300E+03   -0.24183E+03  1452   0.348E+02
DAV:   3    -0.225218978041E+02   -0.12971E+02   -0.12880E+02  1944   0.824E+01
DAV:   4    -0.227342353164E+02   -0.21234E+00   -0.21160E+00  1584   0.111E+01
DAV:   5    -0.227399492946E+02   -0.57140E-02   -0.57126E-02  2088   0.171E+00    0.134E+01
DAV:   6    -0.275704786879E+02   -0.48305E+01   -0.99624E+01  1740   0.594E+01    0.289E+01
DAV:   7    -0.207696776160E+02    0.68008E+01   -0.64790E+01  1656   0.484E+01    0.517E+00
DAV:   8    -0.207886361708E+02   -0.18959E-01   -0.14258E+00  1464   0.608E+00    0.210E+00
DAV:   9    -0.207704499048E+02    0.18186E-01   -0.19425E-01  1752   0.254E+00    0.125E+00
DAV:  10    -0.207721404433E+02   -0.16905E-02   -0.84103E-03  1500   0.819E-01    0.437E-01
DAV:  11    -0.207720763823E+02    0.64061E-04   -0.90508E-04  1752   0.207E-01    0.237E-01
DAV:  12    -0.207719614254E+02    0.11496E-03   -0.34121E-04  1764   0.110E-01    0.671E-02
DAV:  13    -0.207719538237E+02    0.76016E-05   -0.44484E-05  1872   0.376E-02    0.108E-02
DAV:  14    -0.207719541370E+02   -0.31325E-06   -0.21038E-06   804   0.101E-02
   1 F= -.20771954E+02 E0= -.20760932E+02  d E =-.207720E+02
