   4   4   0   0
  0.2505737E+02  0.4150000E-09  0.4149995E-09  0.6720000E-09  0.5000000E-15
  1.000000000000000E-004
  CAR 
 unknown system                          
     11.36844341    -46.66070201  301      6.65224656      1.00000000
    -46.661  0.0000E+00  0.0000E+00  0.0000E+00  0.0000E+00
    -46.467  0.0000E+00  0.0000E+00  0.0000E+00  0.0000E+00
    -46.274  0.0000E+00  0.0000E+00  0.0000E+00  0.0000E+00
    -46.080  0.0000E+00  0.0000E+00  0.0000E+00  0.0000E+00
    -45.887  0.0000E+00  0.0000E+00  0.0000E+00  0.0000E+00
    -45.694  0.0000E+00  0.0000E+00  0.0000E+00  0.0000E+00
    -45.500  0.0000E+00  0.0000E+00  0.0000E+00  0.0000E+00
    -45.307  0.0000E+00  0.0000E+00  0.0000E+00  0.0000E+00
    -45.113  0.0000E+00  0.0000E+00  0.0000E+00  0.0000E+00
    -44.920  0.0000E+00  0.0000E+00  0.0000E+00  0.0000E+00
    -44.726  0.0000E+00  0.0000E+00  0.0000E+00  0.0000E+00
    -44.533  0.0000E+00  0.0000E+00  0.0000E+00  0.0000E+00
    -44.340  0.0000E+00  0.0000E+00  0.0000E+00  0.0000E+00
    -44.146  0.3038E-02  0.3038E-02  0.5877E-03  0.5877E-03
    -43.953  0.1507E+02  0.1507E+02  0.2915E+01  0.2915E+01
    -43.759  0.4385E+00  0.4385E+00  0.3000E+01  0.3000E+01
    -43.566  0.0000E+00  0.0000E+00  0.3000E+01  0.3000E+01
    -43.372  0.0000E+00  0.0000E+00  0.3000E+01  0.3000E+01
    -43.179  0.0000E+00  0.0000E+00  0.3000E+01  0.3000E+01
    -42.986  0.0000E+00  0.0000E+00  0.3000E+01  0.3000E+01
    -42.792  0.0000E+00  0.0000E+00  0.3000E+01  0.3000E+01
    -42.599  0.0000E+00  0.0000E+00  0.3000E+01  0.3000E+01
    -42.405  0.0000E+00  0.0000E+00  0.3000E+01  0.3000E+01
    -42.212  0.0000E+00  0.0000E+00  0.3000E+01  0.3000E+01
    -42.018  0.0000E+00  0.0000E+00  0.3000E+01  0.3000E+01
    -41.825  0.0000E+00  0.0000E+00  0.3000E+01  0.3000E+01
    -41.632  0.0000E+00  0.0000E+00  0.3000E+01  0.3000E+01
    -41.438  0.0000E+00  0.0000E+00  0.3000E+01  0.3000E+01
    -41.245  0.0000E+00  0.0000E+00  0.3000E+01  0.3000E+01
    -41.051  0.0000E+00  0.0000E+00  0.3000E+01  0.3000E+01
    -40.858  0.0000E+00  0.0000E+00  0.3000E+01  0.3000E+01
    -40.664  0.0000E+00  0.0000E+00  0.3000E+01  0.3000E+01
    -40.471  0.0000E+00  0.0000E+00  0.3000E+01  0.3000E+01
    -40.277  0.0000E+00  0.0000E+00  0.3000E+01  0.3000E+01
    -40.084  0.0000E+00  0.0000E+00  0.3000E+01  0.3000E+01
    -39.891  0.1270E-08  0.1270E-08  0.3000E+01  0.3000E+01
    -39.697  0.2717E+01  0.2717E+01  0.3525E+01  0.3525E+01
    -39.504  0.1279E+02  0.1279E+02  0.6000E+01  0.6000E+01
    -39.310  0.4670E-04  0.4670E-04  0.6000E+01  0.6000E+01
    -39.117  0.0000E+00  0.0000E+00  0.6000E+01  0.6000E+01
    -38.923  0.0000E+00  0.0000E+00  0.6000E+01  0.6000E+01
    -38.730  0.0000E+00  0.0000E+00  0.6000E+01  0.6000E+01
    -38.537  0.0000E+00  0.0000E+00  0.6000E+01  0.6000E+01
    -38.343  0.0000E+00  0.0000E+00  0.6000E+01  0.6000E+01
    -38.150  0.0000E+00  0.0000E+00  0.6000E+01  0.6000E+01
    -37.956  0.0000E+00  0.0000E+00  0.6000E+01  0.6000E+01
    -37.763  0.0000E+00  0.0000E+00  0.6000E+01  0.6000E+01
    -37.569  0.0000E+00  0.0000E+00  0.6000E+01  0.6000E+01
    -37.376  0.0000E+00  0.0000E+00  0.6000E+01  0.6000E+01
    -37.183  0.0000E+00  0.0000E+00  0.6000E+01  0.6000E+01
    -36.989  0.0000E+00  0.0000E+00  0.6000E+01  0.6000E+01
    -36.796  0.0000E+00  0.0000E+00  0.6000E+01  0.6000E+01
    -36.602  0.0000E+00  0.0000E+00  0.6000E+01  0.6000E+01
    -36.409  0.0000E+00  0.0000E+00  0.6000E+01  0.6000E+01
    -36.215  0.0000E+00  0.0000E+00  0.6000E+01  0.6000E+01
    -36.022  0.0000E+00  0.0000E+00  0.6000E+01  0.6000E+01
    -35.829  0.0000E+00  0.0000E+00  0.6000E+01  0.6000E+01
    -35.635  0.0000E+00  0.0000E+00  0.6000E+01  0.6000E+01
    -35.442  0.0000E+00  0.0000E+00  0.6000E+01  0.6000E+01
    -35.248  0.0000E+00  0.0000E+00  0.6000E+01  0.6000E+01
    -35.055  0.0000E+00  0.0000E+00  0.6000E+01  0.6000E+01
    -34.861  0.0000E+00  0.0000E+00  0.6000E+01  0.6000E+01
    -34.668  0.0000E+00  0.0000E+00  0.6000E+01  0.6000E+01
    -34.475  0.0000E+00  0.0000E+00  0.6000E+01  0.6000E+01
    -34.281  0.0000E+00  0.0000E+00  0.6000E+01  0.6000E+01
    -34.088  0.0000E+00  0.0000E+00  0.6000E+01  0.6000E+01
    -33.894  0.0000E+00  0.0000E+00  0.6000E+01  0.6000E+01
    -33.701  0.0000E+00  0.0000E+00  0.6000E+01  0.6000E+01
    -33.507  0.0000E+00  0.0000E+00  0.6000E+01  0.6000E+01
    -33.314  0.0000E+00  0.0000E+00  0.6000E+01  0.6000E+01
    -33.121  0.0000E+00  0.0000E+00  0.6000E+01  0.6000E+01
    -32.927  0.0000E+00  0.0000E+00  0.6000E+01  0.6000E+01
    -32.734  0.0000E+00  0.0000E+00  0.6000E+01  0.6000E+01
    -32.540  0.0000E+00  0.0000E+00  0.6000E+01  0.6000E+01
    -32.347  0.0000E+00  0.0000E+00  0.6000E+01  0.6000E+01
    -32.153  0.0000E+00  0.0000E+00  0.6000E+01  0.6000E+01
    -31.960  0.0000E+00  0.0000E+00  0.6000E+01  0.6000E+01
    -31.767  0.0000E+00  0.0000E+00  0.6000E+01  0.6000E+01
    -31.573  0.0000E+00  0.0000E+00  0.6000E+01  0.6000E+01
    -31.380  0.0000E+00  0.0000E+00  0.6000E+01  0.6000E+01
    -31.186  0.0000E+00  0.0000E+00  0.6000E+01  0.6000E+01
    -30.993  0.0000E+00  0.0000E+00  0.6000E+01  0.6000E+01
    -30.799  0.0000E+00  0.0000E+00  0.6000E+01  0.6000E+01
    -30.606  0.0000E+00  0.0000E+00  0.6000E+01  0.6000E+01
    -30.413  0.0000E+00  0.0000E+00  0.6000E+01  0.6000E+01
    -30.219  0.0000E+00  0.0000E+00  0.6000E+01  0.6000E+01
    -30.026  0.0000E+00  0.0000E+00  0.6000E+01  0.6000E+01
    -29.832  0.0000E+00  0.0000E+00  0.6000E+01  0.6000E+01
    -29.639  0.0000E+00  0.0000E+00  0.6000E+01  0.6000E+01
    -29.445  0.0000E+00  0.0000E+00  0.6000E+01  0.6000E+01
    -29.252  0.0000E+00  0.0000E+00  0.6000E+01  0.6000E+01
    -29.059  0.0000E+00  0.0000E+00  0.6000E+01  0.6000E+01
    -28.865  0.0000E+00  0.0000E+00  0.6000E+01  0.6000E+01
    -28.672  0.0000E+00  0.0000E+00  0.6000E+01  0.6000E+01
    -28.478  0.0000E+00  0.0000E+00  0.6000E+01  0.6000E+01
    -28.285  0.0000E+00  0.0000E+00  0.6000E+01  0.6000E+01
    -28.091  0.0000E+00  0.0000E+00  0.6000E+01  0.6000E+01
    -27.898  0.0000E+00  0.0000E+00  0.6000E+01  0.6000E+01
    -27.705  0.0000E+00  0.0000E+00  0.6000E+01  0.6000E+01
    -27.511  0.0000E+00  0.0000E+00  0.6000E+01  0.6000E+01
    -27.318  0.0000E+00  0.0000E+00  0.6000E+01  0.6000E+01
    -27.124  0.0000E+00  0.0000E+00  0.6000E+01  0.6000E+01
    -26.931  0.0000E+00  0.0000E+00  0.6000E+01  0.6000E+01
    -26.737  0.0000E+00  0.0000E+00  0.6000E+01  0.6000E+01
    -26.544  0.0000E+00  0.0000E+00  0.6000E+01  0.6000E+01
    -26.351  0.0000E+00  0.0000E+00  0.6000E+01  0.6000E+01
    -26.157  0.0000E+00  0.0000E+00  0.6000E+01  0.6000E+01
    -25.964  0.0000E+00  0.0000E+00  0.6000E+01  0.6000E+01
    -25.770  0.0000E+00  0.0000E+00  0.6000E+01  0.6000E+01
    -25.577  0.0000E+00  0.0000E+00  0.6000E+01  0.6000E+01
    -25.383  0.0000E+00  0.0000E+00  0.6000E+01  0.6000E+01
    -25.190  0.0000E+00  0.0000E+00  0.6000E+01  0.6000E+01
    -24.996  0.0000E+00  0.0000E+00  0.6000E+01  0.6000E+01
    -24.803  0.0000E+00  0.0000E+00  0.6000E+01  0.6000E+01
    -24.610  0.0000E+00  0.0000E+00  0.6000E+01  0.6000E+01
    -24.416  0.0000E+00  0.0000E+00  0.6000E+01  0.6000E+01
    -24.223  0.0000E+00  0.0000E+00  0.6000E+01  0.6000E+01
    -24.029  0.0000E+00  0.0000E+00  0.6000E+01  0.6000E+01
    -23.836  0.0000E+00  0.0000E+00  0.6000E+01  0.6000E+01
    -23.642  0.0000E+00  0.0000E+00  0.6000E+01  0.6000E+01
    -23.449  0.0000E+00  0.0000E+00  0.6000E+01  0.6000E+01
    -23.256  0.0000E+00  0.0000E+00  0.6000E+01  0.6000E+01
    -23.062  0.0000E+00  0.0000E+00  0.6000E+01  0.6000E+01
    -22.869  0.0000E+00  0.0000E+00  0.6000E+01  0.6000E+01
    -22.675  0.0000E+00  0.0000E+00  0.6000E+01  0.6000E+01
    -22.482  0.0000E+00  0.0000E+00  0.6000E+01  0.6000E+01
    -22.288  0.0000E+00  0.0000E+00  0.6000E+01  0.6000E+01
    -22.095  0.0000E+00  0.0000E+00  0.6000E+01  0.6000E+01
    -21.902  0.0000E+00  0.0000E+00  0.6000E+01  0.6000E+01
    -21.708  0.0000E+00  0.0000E+00  0.6000E+01  0.6000E+01
    -21.515  0.0000E+00  0.0000E+00  0.6000E+01  0.6000E+01
    -21.321  0.0000E+00  0.0000E+00  0.6000E+01  0.6000E+01
    -21.128  0.0000E+00  0.0000E+00  0.6000E+01  0.6000E+01
    -20.934  0.0000E+00  0.0000E+00  0.6000E+01  0.6000E+01
    -20.741  0.0000E+00  0.0000E+00  0.6000E+01  0.6000E+01
    -20.548  0.0000E+00  0.0000E+00  0.6000E+01  0.6000E+01
    -20.354  0.0000E+00  0.0000E+00  0.6000E+01  0.6000E+01
    -20.161  0.0000E+00  0.0000E+00  0.6000E+01  0.6000E+01
    -19.967  0.0000E+00  0.0000E+00  0.6000E+01  0.6000E+01
    -19.774  0.0000E+00  0.0000E+00  0.6000E+01  0.6000E+01
    -19.580  0.0000E+00  0.0000E+00  0.6000E+01  0.6000E+01
    -19.387  0.0000E+00  0.0000E+00  0.6000E+01  0.6000E+01
    -19.194  0.0000E+00  0.0000E+00  0.6000E+01  0.6000E+01
    -19.000  0.0000E+00  0.0000E+00  0.6000E+01  0.6000E+01
    -18.807  0.0000E+00  0.0000E+00  0.6000E+01  0.6000E+01
    -18.613  0.0000E+00  0.0000E+00  0.6000E+01  0.6000E+01
    -18.420  0.0000E+00  0.0000E+00  0.6000E+01  0.6000E+01
    -18.226  0.0000E+00  0.0000E+00  0.6000E+01  0.6000E+01
    -18.033  0.0000E+00  0.0000E+00  0.6000E+01  0.6000E+01
    -17.840  0.0000E+00  0.0000E+00  0.6000E+01  0.6000E+01
    -17.646  0.0000E+00  0.0000E+00  0.6000E+01  0.6000E+01
    -17.453  0.0000E+00  0.0000E+00  0.6000E+01  0.6000E+01
    -17.259  0.0000E+00  0.0000E+00  0.6000E+01  0.6000E+01
    -17.066  0.0000E+00  0.0000E+00  0.6000E+01  0.6000E+01
    -16.872  0.0000E+00  0.0000E+00  0.6000E+01  0.6000E+01
    -16.679  0.0000E+00  0.0000E+00  0.6000E+01  0.6000E+01
    -16.486  0.0000E+00  0.0000E+00  0.6000E+01  0.6000E+01
    -16.292  0.0000E+00  0.0000E+00  0.6000E+01  0.6000E+01
    -16.099  0.0000E+00  0.0000E+00  0.6000E+01  0.6000E+01
    -15.905  0.0000E+00  0.0000E+00  0.6000E+01  0.6000E+01
    -15.712  0.0000E+00  0.0000E+00  0.6000E+01  0.6000E+01
    -15.518  0.0000E+00  0.0000E+00  0.6000E+01  0.6000E+01
    -15.325  0.0000E+00  0.0000E+00  0.6000E+01  0.6000E+01
    -15.132  0.0000E+00  0.0000E+00  0.6000E+01  0.6000E+01
    -14.938  0.0000E+00  0.0000E+00  0.6000E+01  0.6000E+01
    -14.745  0.0000E+00  0.0000E+00  0.6000E+01  0.6000E+01
    -14.551  0.0000E+00  0.0000E+00  0.6000E+01  0.6000E+01
    -14.358  0.0000E+00  0.0000E+00  0.6000E+01  0.6000E+01
    -14.164  0.0000E+00  0.0000E+00  0.6000E+01  0.6000E+01
    -13.971  0.0000E+00  0.0000E+00  0.6000E+01  0.6000E+01
    -13.778  0.0000E+00  0.0000E+00  0.6000E+01  0.6000E+01
    -13.584  0.0000E+00  0.0000E+00  0.6000E+01  0.6000E+01
    -13.391  0.0000E+00  0.0000E+00  0.6000E+01  0.6000E+01
    -13.197  0.0000E+00  0.0000E+00  0.6000E+01  0.6000E+01
    -13.004  0.0000E+00  0.0000E+00  0.6000E+01  0.6000E+01
    -12.810  0.0000E+00  0.0000E+00  0.6000E+01  0.6000E+01
    -12.617  0.0000E+00  0.0000E+00  0.6000E+01  0.6000E+01
    -12.424  0.0000E+00  0.0000E+00  0.6000E+01  0.6000E+01
    -12.230  0.0000E+00  0.0000E+00  0.6000E+01  0.6000E+01
    -12.037  0.0000E+00  0.0000E+00  0.6000E+01  0.6000E+01
    -11.843  0.0000E+00  0.0000E+00  0.6000E+01  0.6000E+01
    -11.650  0.0000E+00  0.0000E+00  0.6000E+01  0.6000E+01
    -11.456  0.0000E+00  0.0000E+00  0.6000E+01  0.6000E+01
    -11.263  0.0000E+00  0.0000E+00  0.6000E+01  0.6000E+01
    -11.069  0.0000E+00  0.0000E+00  0.6000E+01  0.6000E+01
    -10.876  0.0000E+00  0.0000E+00  0.6000E+01  0.6000E+01
    -10.683  0.0000E+00  0.0000E+00  0.6000E+01  0.6000E+01
    -10.489  0.0000E+00  0.0000E+00  0.6000E+01  0.6000E+01
    -10.296  0.0000E+00  0.0000E+00  0.6000E+01  0.6000E+01
    -10.102  0.0000E+00  0.0000E+00  0.6000E+01  0.6000E+01
     -9.909  0.0000E+00  0.0000E+00  0.6000E+01  0.6000E+01
     -9.715  0.0000E+00  0.0000E+00  0.6000E+01  0.6000E+01
     -9.522  0.0000E+00  0.0000E+00  0.6000E+01  0.6000E+01
     -9.329  0.0000E+00  0.0000E+00  0.6000E+01  0.6000E+01
     -9.135  0.0000E+00  0.0000E+00  0.6000E+01  0.6000E+01
     -8.942  0.0000E+00  0.0000E+00  0.6000E+01  0.6000E+01
     -8.748  0.0000E+00  0.0000E+00  0.6000E+01  0.6000E+01
     -8.555  0.0000E+00  0.0000E+00  0.6000E+01  0.6000E+01
     -8.361  0.0000E+00  0.0000E+00  0.6000E+01  0.6000E+01
     -8.168  0.0000E+00  0.0000E+00  0.6000E+01  0.6000E+01
     -7.975  0.0000E+00  0.0000E+00  0.6000E+01  0.6000E+01
     -7.781  0.0000E+00  0.0000E+00  0.6000E+01  0.6000E+01
     -7.588  0.0000E+00  0.0000E+00  0.6000E+01  0.6000E+01
     -7.394  0.0000E+00  0.0000E+00  0.6000E+01  0.6000E+01
     -7.201  0.0000E+00  0.0000E+00  0.6000E+01  0.6000E+01
     -7.007  0.0000E+00  0.0000E+00  0.6000E+01  0.6000E+01
     -6.814  0.0000E+00  0.0000E+00  0.6000E+01  0.6000E+01
     -6.621  0.0000E+00  0.0000E+00  0.6000E+01  0.6000E+01
     -6.427  0.0000E+00  0.0000E+00  0.6000E+01  0.6000E+01
     -6.234  0.0000E+00  0.0000E+00  0.6000E+01  0.6000E+01
     -6.040  0.1823E-05  0.1823E-05  0.6000E+01  0.6000E+01
     -5.847  0.4064E-01  0.4064E-01  0.6008E+01  0.6008E+01
     -5.653  0.2227E+00  0.2221E+00  0.6051E+01  0.6051E+01
     -5.460  0.2632E+00  0.2638E+00  0.6102E+01  0.6102E+01
     -5.267  0.9426E+00  0.9484E+00  0.6284E+01  0.6285E+01
     -5.073  0.4665E+00  0.4718E+00  0.6374E+01  0.6377E+01
     -4.880  0.1038E+01  0.1012E+01  0.6575E+01  0.6572E+01
     -4.686  0.1823E+01  0.1785E+01  0.6928E+01  0.6917E+01
     -4.493  0.3221E+01  0.3316E+01  0.7551E+01  0.7559E+01
     -4.299  0.2316E+01  0.2276E+01  0.7999E+01  0.7999E+01
     -4.106  0.4785E-02  0.4782E-02  0.8000E+01  0.8000E+01
     -3.913  0.0000E+00  0.0000E+00  0.8000E+01  0.8000E+01
     -3.719  0.0000E+00  0.0000E+00  0.8000E+01  0.8000E+01
     -3.526  0.0000E+00  0.0000E+00  0.8000E+01  0.8000E+01
     -3.332  0.0000E+00  0.0000E+00  0.8000E+01  0.8000E+01
     -3.139  0.0000E+00  0.0000E+00  0.8000E+01  0.8000E+01
     -2.945  0.0000E+00  0.0000E+00  0.8000E+01  0.8000E+01
     -2.752  0.0000E+00  0.0000E+00  0.8000E+01  0.8000E+01
     -2.559  0.0000E+00  0.0000E+00  0.8000E+01  0.8000E+01
     -2.365  0.0000E+00  0.0000E+00  0.8000E+01  0.8000E+01
     -2.172  0.0000E+00  0.0000E+00  0.8000E+01  0.8000E+01
     -1.978  0.0000E+00  0.0000E+00  0.8000E+01  0.8000E+01
     -1.785  0.0000E+00  0.0000E+00  0.8000E+01  0.8000E+01
     -1.591  0.0000E+00  0.0000E+00  0.8000E+01  0.8000E+01
     -1.398  0.0000E+00  0.0000E+00  0.8000E+01  0.8000E+01
     -1.205  0.0000E+00  0.0000E+00  0.8000E+01  0.8000E+01
     -1.011  0.0000E+00  0.0000E+00  0.8000E+01  0.8000E+01
     -0.818  0.0000E+00  0.0000E+00  0.8000E+01  0.8000E+01
     -0.624  0.0000E+00  0.0000E+00  0.8000E+01  0.8000E+01
     -0.431  0.0000E+00  0.0000E+00  0.8000E+01  0.8000E+01
     -0.237  0.0000E+00  0.0000E+00  0.8000E+01  0.8000E+01
     -0.044  0.0000E+00  0.0000E+00  0.8000E+01  0.8000E+01
      0.149  0.0000E+00  0.0000E+00  0.8000E+01  0.8000E+01
      0.343  0.0000E+00  0.0000E+00  0.8000E+01  0.8000E+01
      0.536  0.6262E-08  0.6262E-08  0.8000E+01  0.8000E+01
      0.730  0.2580E-01  0.2580E-01  0.8005E+01  0.8005E+01
      0.923  0.4305E+00  0.4303E+00  0.8088E+01  0.8088E+01
      1.117  0.7224E+00  0.6686E+00  0.8228E+01  0.8218E+01
      1.310  0.9976E+00  0.9675E+00  0.8421E+01  0.8405E+01
      1.503  0.1623E+01  0.1803E+01  0.8735E+01  0.8754E+01
      1.697  0.1580E+01  0.1534E+01  0.9041E+01  0.9050E+01
      1.890  0.1760E+01  0.1792E+01  0.9381E+01  0.9397E+01
      2.084  0.8239E+00  0.7423E+00  0.9540E+01  0.9540E+01
      2.277  0.8991E+00  0.9298E+00  0.9714E+01  0.9720E+01
      2.471  0.1955E+01  0.1925E+01  0.1009E+02  0.1009E+02
      2.664  0.1787E+01  0.1808E+01  0.1044E+02  0.1044E+02
      2.858  0.5284E+01  0.5616E+01  0.1146E+02  0.1153E+02
      3.051  0.3867E+01  0.3682E+01  0.1221E+02  0.1224E+02
      3.244  0.2449E+01  0.2696E+01  0.1268E+02  0.1276E+02
      3.438  0.3729E+01  0.3017E+01  0.1340E+02  0.1335E+02
      3.631  0.3949E+01  0.3965E+01  0.1417E+02  0.1411E+02
      3.825  0.4567E+01  0.4446E+01  0.1505E+02  0.1497E+02
      4.018  0.3550E+01  0.3507E+01  0.1574E+02  0.1565E+02
      4.212  0.1918E+01  0.2425E+01  0.1611E+02  0.1612E+02
      4.405  0.1794E+01  0.9139E+00  0.1646E+02  0.1630E+02
      4.598  0.1106E+01  0.1046E+01  0.1667E+02  0.1650E+02
      4.792  0.9010E+00  0.1525E+01  0.1684E+02  0.1679E+02
      4.985  0.1592E+01  0.2036E+01  0.1715E+02  0.1719E+02
      5.179  0.1126E+01  0.1295E+01  0.1737E+02  0.1744E+02
      5.372  0.1634E+01  0.1781E+01  0.1769E+02  0.1778E+02
      5.566  0.2449E+01  0.2472E+01  0.1816E+02  0.1826E+02
      5.759  0.1627E+01  0.2069E+01  0.1847E+02  0.1866E+02
      5.952  0.1158E+01  0.7022E+00  0.1870E+02  0.1880E+02
      6.146  0.9585E+00  0.4024E+00  0.1888E+02  0.1888E+02
      6.339  0.5158E+00  0.5551E+00  0.1898E+02  0.1898E+02
      6.533  0.7098E-02  0.8612E-02  0.1898E+02  0.1898E+02
      6.726  0.1886E+00  0.1885E+00  0.1902E+02  0.1902E+02
      6.920  0.7667E+00  0.1015E+01  0.1917E+02  0.1922E+02
      7.113  0.1667E+01  0.1360E+01  0.1949E+02  0.1948E+02
      7.306  0.2772E+01  0.2836E+01  0.2003E+02  0.2003E+02
      7.500  0.2326E+01  0.2810E+01  0.2048E+02  0.2057E+02
      7.693  0.7280E+01  0.6666E+01  0.2189E+02  0.2186E+02
      7.887  0.2826E+01  0.2362E+01  0.2243E+02  0.2232E+02
      8.080  0.2752E+01  0.3265E+01  0.2296E+02  0.2295E+02
      8.274  0.2969E+01  0.2842E+01  0.2354E+02  0.2350E+02
      8.467  0.1404E+01  0.1732E+01  0.2381E+02  0.2384E+02
      8.660  0.8065E+00  0.6805E+00  0.2397E+02  0.2397E+02
      8.854  0.1724E+00  0.1723E+00  0.2400E+02  0.2400E+02
      9.047  0.3020E-04  0.3020E-04  0.2400E+02  0.2400E+02
      9.241  0.0000E+00  0.0000E+00  0.2400E+02  0.2400E+02
      9.434  0.0000E+00  0.0000E+00  0.2400E+02  0.2400E+02
      9.628  0.0000E+00  0.0000E+00  0.2400E+02  0.2400E+02
      9.821  0.0000E+00  0.0000E+00  0.2400E+02  0.2400E+02
     10.014  0.0000E+00  0.0000E+00  0.2400E+02  0.2400E+02
     10.208  0.0000E+00  0.0000E+00  0.2400E+02  0.2400E+02
     10.401  0.0000E+00  0.0000E+00  0.2400E+02  0.2400E+02
     10.595  0.0000E+00  0.0000E+00  0.2400E+02  0.2400E+02
     10.788  0.0000E+00  0.0000E+00  0.2400E+02  0.2400E+02
     10.982  0.0000E+00  0.0000E+00  0.2400E+02  0.2400E+02
     11.175  0.0000E+00  0.0000E+00  0.2400E+02  0.2400E+02
     11.368  0.0000E+00  0.0000E+00  0.2400E+02  0.2400E+02
