    4    4    1    2
  0.2505737E+02  0.4150000E-09  0.4149995E-09  0.6720000E-09  0.5000000E-15
  1.000000000000000E-004
  CAR 
 unknown system                          
     38     30     24
 
  0.0000000E+00  0.0000000E+00  0.0000000E+00  0.7812500E-02
      1        -44.021912      -44.021912   1.000000   1.000000
      2        -44.021890      -44.021890   1.000000   1.000000
      3        -44.016276      -44.016276   1.000000   1.000000
      4        -39.667623      -39.667623   1.000000   1.000000
      5        -39.661686      -39.661686   1.000000   1.000000
      6        -39.661662      -39.661662   1.000000   1.000000
      7         -5.901872       -5.901872   1.000000   1.000000
      8         -4.643196       -4.643196   1.000000   1.000000
      9          0.717257        0.717257   1.000000   1.000000
     10          2.802743        2.802743   1.000000   1.000000
     11          2.802747        2.802747   1.000000   1.000000
     12          3.463646        3.463646   1.000000   1.000000
     13          3.479100        3.479100   1.000000   1.000000
     14          3.479106        3.479106   1.000000   1.000000
     15          5.312274        5.312274   1.000000   1.000000
     16          5.312276        5.312276   1.000000   1.000000
     17          5.767166        5.767166   1.000000   1.000000
     18          5.767167        5.767167   1.000000   1.000000
     19          5.962791        5.962791   1.000000   1.000000
     20          7.244622        7.244622   0.000000   0.000000
     21          7.244627        7.244627   0.000000   0.000000
     22          7.407902        7.407902   0.000000   0.000000
     23          8.531903        8.531903   0.000000   0.000000
     24          8.609068        8.609068   0.000000   0.000000
 
  0.2500000E+00  0.4550410E-16  0.0000000E+00  0.4687500E-01
      1        -44.022473      -44.022473   1.000000   1.000000
      2        -44.022085      -44.022085   1.000000   1.000000
      3        -44.016195      -44.016195   1.000000   1.000000
      4        -39.667492      -39.667492   1.000000   1.000000
      5        -39.662518      -39.662518   1.000000   1.000000
      6        -39.661936      -39.661936   1.000000   1.000000
      7         -5.435533       -5.435533   1.000000   1.000000
      8         -4.480960       -4.480960   1.000000   1.000000
      9          1.389757        1.389757   1.000000   1.000000
     10          2.358025        2.358025   1.000000   1.000000
     11          2.652192        2.652192   1.000000   1.000000
     12          2.860849        2.860850   1.000000   1.000000
     13          3.414958        3.414958   1.000000   1.000000
     14          3.419887        3.419887   1.000000   1.000000
     15          3.802606        3.802606   1.000000   1.000000
     16          4.167849        4.167849   1.000000   1.000000
     17          4.704988        4.704988   1.000000   1.000000
     18          5.590213        5.590213   1.000000   1.000000
     19          5.990856        5.990856   1.000000   1.000000
     20          7.036041        7.036041   0.000000   0.000000
     21          7.527026        7.527026   0.000000   0.000000
     22          7.615366        7.615366   0.000000   0.000000
     23          8.145498        8.145499   0.000000   0.000000
     24          8.520663        8.520663   0.000000   0.000000
 
  0.5000000E+00  0.9100819E-16  0.0000000E+00  0.2343750E-01
      1        -44.022992      -44.022992   1.000000   1.000000
      2        -44.022218      -44.022218   1.000000   1.000000
      3        -44.016085      -44.016085   1.000000   1.000000
      4        -39.667319      -39.667319   1.000000   1.000000
      5        -39.663283      -39.663283   1.000000   1.000000
      6        -39.662129      -39.662129   1.000000   1.000000
      7         -4.670259       -4.670259   1.000000   1.000000
      8         -4.472838       -4.472838   1.000000   1.000000
      9          0.864397        0.864397   1.000000   1.000000
     10          2.300440        2.300440   1.000000   1.000000
     11          2.628765        2.628765   1.000000   1.000000
     12          2.821131        2.821131   1.000000   1.000000
     13          2.967803        2.967803   1.000000   1.000000
     14          3.431467        3.431467   1.000000   1.000000
     15          3.665102        3.665102   1.000000   1.000000
     16          3.817398        3.817398   1.000000   1.000000
     17          3.980861        3.980861   1.000000   1.000000
     18          4.920256        4.920256   1.000000   1.000000
     19          5.494835        5.494835   1.000000   1.000000
     20          6.897989        6.897989   0.000000   0.000000
     21          7.566277        7.566277   0.000000   0.000000
     22          7.625898        7.625898   0.000000   0.000000
     23          7.909157        7.909157   0.000000   0.000000
     24          8.730755        8.730755   0.000000   0.000000
 
  0.0000000E+00  0.1250000E+00  0.0000000E+00  0.1562500E-01
      1        -44.022105      -44.022105   1.000000   1.000000
      2        -44.021962      -44.021962   1.000000   1.000000
      3        -44.016247      -44.016247   1.000000   1.000000
      4        -39.667581      -39.667581   1.000000   1.000000
      5        -39.661968      -39.661968   1.000000   1.000000
      6        -39.661764      -39.661764   1.000000   1.000000
      7         -5.778063       -5.778063   1.000000   1.000000
      8         -4.594009       -4.594009   1.000000   1.000000
      9          0.891478        0.891478   1.000000   1.000000
     10          2.718707        2.718707   1.000000   1.000000
     11          2.825781        2.825781   1.000000   1.000000
     12          3.346095        3.346095   1.000000   1.000000
     13          3.447478        3.447478   1.000000   1.000000
     14          3.459778        3.459778   1.000000   1.000000
     15          4.564536        4.564536   1.000000   1.000000
     16          4.954872        4.954872   1.000000   1.000000
     17          5.134187        5.134187   1.000000   1.000000
     18          5.686874        5.686874   1.000000   1.000000
     19          6.229483        6.229483   1.000000   1.000000
     20          7.209304        7.209304   0.000000   0.000000
     21          7.383582        7.383582   0.000000   0.000000
     22          7.500882        7.500882   0.000000   0.000000
     23          8.103924        8.103924   0.000000   0.000000
     24          8.509183        8.509183   0.000000   0.000000
 
  0.2500000E+00  0.1250000E+00  0.0000000E+00  0.3125000E-01
      1        -44.022695      -44.022695   1.000000   1.000000
      2        -44.022199      -44.022199   1.000000   1.000000
      3        -44.016136      -44.016136   1.000000   1.000000
      4        -39.667404      -39.667404   1.000000   1.000000
      5        -39.662839      -39.662839   1.000000   1.000000
      6        -39.662105      -39.662105   1.000000   1.000000
      7         -5.141195       -5.141195   1.000000   1.000000
      8         -4.412372       -4.412372   1.000000   1.000000
      9          1.800599        1.800599   1.000000   1.000000
     10          1.872692        1.872692   1.000000   1.000000
     11          2.422967        2.422967   1.000000   1.000000
     12          2.803411        2.803411   1.000000   1.000000
     13          3.133688        3.133688   1.000000   1.000000
     14          3.438628        3.438628   1.000000   1.000000
     15          3.565601        3.565601   1.000000   1.000000
     16          3.879114        3.879114   1.000000   1.000000
     17          4.576238        4.576238   1.000000   1.000000
     18          5.146684        5.146684   1.000000   1.000000
     19          5.805348        5.805348   1.000000   1.000000
     20          7.211266        7.211266   0.000000   0.000000
     21          7.517676        7.517676   0.000000   0.000000
     22          7.702555        7.702555   0.000000   0.000000
     23          7.975449        7.975449   0.000000   0.000000
     24          8.295612        8.295612   0.000000   0.000000
 
  0.5000000E+00  0.1250000E+00  0.0000000E+00  0.3125000E-01
      1        -44.022909      -44.022909   1.000000   1.000000
      2        -44.022304      -44.022304   1.000000   1.000000
      3        -44.016083      -44.016083   1.000000   1.000000
      4        -39.667320      -39.667320   1.000000   1.000000
      5        -39.663161      -39.663161   1.000000   1.000000
      6        -39.662254      -39.662254   1.000000   1.000000
      7         -4.728233       -4.728233   1.000000   1.000000
      8         -4.414807       -4.414807   1.000000   1.000000
      9          1.040807        1.040807   1.000000   1.000000
     10          2.273973        2.273973   1.000000   1.000000
     11          2.551462        2.551462   1.000000   1.000000
     12          2.790618        2.790618   1.000000   1.000000
     13          3.013917        3.013917   1.000000   1.000000
     14          3.110558        3.110558   1.000000   1.000000
     15          3.708537        3.708537   1.000000   1.000000
     16          3.744086        3.744086   1.000000   1.000000
     17          4.176115        4.176115   1.000000   1.000000
     18          4.999502        4.999502   1.000000   1.000000
     19          5.288914        5.288914   1.000000   1.000000
     20          7.147642        7.147642   0.000000   0.000000
     21          7.572642        7.572642   0.000000   0.000000
     22          7.598330        7.598330   0.000000   0.000000
     23          7.915892        7.915892   0.000000   0.000000
     24          8.176360        8.176360   0.000000   0.000000
 
 -0.2500000E+00  0.1250000E+00  0.0000000E+00  0.1562500E-01
      1        -44.022336      -44.022336   1.000000   1.000000
      2        -44.022056      -44.022056   1.000000   1.000000
      3        -44.016195      -44.016195   1.000000   1.000000
      4        -39.667501      -39.667501   1.000000   1.000000
      5        -39.662320      -39.662320   1.000000   1.000000
      6        -39.661895      -39.661895   1.000000   1.000000
      7         -5.544419       -5.544419   1.000000   1.000000
      8         -4.511809       -4.511809   1.000000   1.000000
      9          1.228529        1.228529   1.000000   1.000000
     10          2.584282        2.584282   1.000000   1.000000
     11          2.805261        2.805261   1.000000   1.000000
     12          2.939497        2.939497   1.000000   1.000000
     13          3.300085        3.300085   1.000000   1.000000
     14          3.484990        3.484990   1.000000   1.000000
     15          4.004036        4.004036   1.000000   1.000000
     16          4.099679        4.099679   1.000000   1.000000
     17          5.166802        5.166802   1.000000   1.000000
     18          5.232202        5.232202   1.000000   1.000000
     19          6.279885        6.279885   1.000000   1.000000
     20          7.269481        7.269481   0.000000   0.000000
     21          7.411323        7.411323   0.000000   0.000000
     22          7.604219        7.604219   0.000000   0.000000
     23          8.066866        8.066866   0.000000   0.000000
     24          8.215832        8.215832   0.000000   0.000000
 
  0.2500000E+00  0.2500000E+00  0.0000000E+00  0.4687500E-01
      1        -44.022812      -44.022812   1.000000   1.000000
      2        -44.022398      -44.022398   1.000000   1.000000
      3        -44.016078      -44.016078   1.000000   1.000000
      4        -39.667315      -39.667315   1.000000   1.000000
      5        -39.663009      -39.663009   1.000000   1.000000
      6        -39.662402      -39.662402   1.000000   1.000000
      7         -4.769712       -4.769712   1.000000   1.000000
      8         -4.373325       -4.373325   1.000000   1.000000
      9          1.309136        1.309136   1.000000   1.000000
     10          2.228425        2.228425   1.000000   1.000000
     11          2.391437        2.391437   1.000000   1.000000
     12          2.570331        2.570331   1.000000   1.000000
     13          2.875308        2.875308   1.000000   1.000000
     14          3.253938        3.253938   1.000000   1.000000
     15          3.731442        3.731442   1.000000   1.000000
     16          3.758833        3.758833   1.000000   1.000000
     17          4.381608        4.381608   1.000000   1.000000
     18          4.722782        4.722782   1.000000   1.000000
     19          5.350756        5.350756   1.000000   1.000000
     20          7.258569        7.258569   0.000000   0.000000
     21          7.534038        7.534038   0.000000   0.000000
     22          7.711779        7.711779   0.000000   0.000000
     23          7.840317        7.840317   0.000000   0.000000
     24          8.098706        8.098706   0.000000   0.000000
 
  0.0000000E+00  0.3750000E+00  0.0000000E+00  0.1562500E-01
      1        -44.022872      -44.022872   1.000000   1.000000
      2        -44.022168      -44.022168   1.000000   1.000000
      3        -44.016113      -44.016113   1.000000   1.000000
      4        -39.667368      -39.667368   1.000000   1.000000
      5        -39.663095      -39.663095   1.000000   1.000000
      6        -39.662063      -39.662063   1.000000   1.000000
      7         -4.979215       -4.979215   1.000000   1.000000
      8         -4.410694       -4.410694   1.000000   1.000000
      9          1.311916        1.311916   1.000000   1.000000
     10          2.108330        2.108330   1.000000   1.000000
     11          2.406491        2.406491   1.000000   1.000000
     12          2.844433        2.844433   1.000000   1.000000
     13          3.193647        3.193647   1.000000   1.000000
     14          3.468058        3.468058   1.000000   1.000000
     15          3.511064        3.511064   1.000000   1.000000
     16          3.921936        3.921936   1.000000   1.000000
     17          4.253349        4.253349   1.000000   1.000000
     18          5.328347        5.328347   1.000000   1.000000
     19          5.521138        5.521138   1.000000   1.000000
     20          6.928054        6.928054   0.000000   0.000000
     21          7.592314        7.592314   0.000000   0.000000
     22          7.693217        7.693217   0.000000   0.000000
     23          7.980356        7.980356   0.000000   0.000000
     24          8.664443        8.664443   0.000000   0.000000
 
  0.2500000E+00  0.3750000E+00  0.0000000E+00  0.1562500E-01
      1        -44.022821      -44.022821   1.000000   1.000000
      2        -44.022510      -44.022510   1.000000   1.000000
      3        -44.016045      -44.016045   1.000000   1.000000
      4        -39.667268      -39.667268   1.000000   1.000000
      5        -39.663023      -39.663023   1.000000   1.000000
      6        -39.662572      -39.662572   1.000000   1.000000
      7         -4.531421       -4.531421   1.000000   1.000000
      8         -4.422343       -4.422343   1.000000   1.000000
      9          1.048858        1.048858   1.000000   1.000000
     10          2.196430        2.196430   1.000000   1.000000
     11          2.308287        2.308287   1.000000   1.000000
     12          2.832913        2.832913   1.000000   1.000000
     13          2.852646        2.852646   1.000000   1.000000
     14          3.135337        3.135337   1.000000   1.000000
     15          3.649829        3.649829   1.000000   1.000000
     16          3.982981        3.982981   1.000000   1.000000
     17          4.146368        4.146368   1.000000   1.000000
     18          4.789791        4.789791   1.000000   1.000000
     19          4.892574        4.892574   1.000000   1.000000
     20          7.042538        7.042538   0.000000   0.000000
     21          7.587367        7.587367   0.000000   0.000000
     22          7.701242        7.701242   0.000000   0.000000
     23          7.854559        7.854559   0.000000   0.000000
     24          7.893698        7.893698   0.000000   0.000000
 
  0.0000000E+00  0.0000000E+00  0.2500000E+00  0.1562500E-01
      1        -44.021908      -44.021908   1.000000   1.000000
      2        -44.021886      -44.021886   1.000000   1.000000
      3        -44.016239      -44.016239   1.000000   1.000000
      4        -39.667591      -39.667591   1.000000   1.000000
      5        -39.661680      -39.661680   1.000000   1.000000
      6        -39.661656      -39.661656   1.000000   1.000000
      7         -5.760499       -5.760499   1.000000   1.000000
      8         -4.889407       -4.889407   1.000000   1.000000
      9          1.257060        1.257060   1.000000   1.000000
     10          2.846843        2.846843   1.000000   1.000000
     11          2.846847        2.846847   1.000000   1.000000
     12          3.423442        3.423442   1.000000   1.000000
     13          3.483047        3.483047   1.000000   1.000000
     14          3.483053        3.483053   1.000000   1.000000
     15          4.837085        4.837085   1.000000   1.000000
     16          4.895462        4.895462   1.000000   1.000000
     17          4.895464        4.895464   1.000000   1.000000
     18          6.264084        6.264084   1.000000   1.000000
     19          6.264085        6.264085   1.000000   1.000000
     20          7.220859        7.220859   0.000000   0.000000
     21          7.220864        7.220863   0.000000   0.000000
     22          7.260503        7.260503   0.000000   0.000000
     23          8.508525        8.508525   0.000000   0.000000
     24          8.508529        8.508529   0.000000   0.000000
 
  0.2500000E+00  0.4550410E-16  0.2500000E+00  0.9375000E-01
      1        -44.022480      -44.022480   1.000000   1.000000
      2        -44.022081      -44.022081   1.000000   1.000000
      3        -44.016168      -44.016169   1.000000   1.000000
      4        -39.667470      -39.667472   1.000000   1.000000
      5        -39.662522      -39.662528   1.000000   1.000000
      6        -39.661931      -39.661930   1.000000   1.000000
      7         -5.317768       -5.320971   1.000000   1.000000
      8         -4.653940       -4.648397   1.000000   1.000000
      9          1.605807        1.535008   1.000000   1.000000
     10          2.364484        2.329397   1.000000   1.000000
     11          2.760083        2.683441   1.000000   1.000000
     12          2.913310        2.859404   1.000000   1.000000
     13          3.397720        3.421099   1.000000   1.000000
     14          3.458766        3.443730   1.000000   1.000000
     15          3.653716        3.912775   1.000000   1.000000
     16          4.010396        4.621984   1.000000   1.000000
     17          4.470209        4.838335   1.000000   1.000000
     18          5.950984        5.156560   1.000000   1.000000
     19          6.121904        5.386624   1.000000   1.000000
     20          7.019255        6.919705   0.000000   0.000000
     21          7.526000        7.453451   0.000000   0.000000
     22          7.585989        7.605332   0.000000   0.000000
     23          7.812883        8.167028   0.000000   0.000000
     24          8.153333        8.416019   0.000000   0.000000
 
  0.5000000E+00  0.9100819E-16  0.2500000E+00  0.4687500E-01
      1        -44.023007      -44.023007   1.000000   1.000000
      2        -44.022226      -44.022226   1.000000   1.000000
      3        -44.016096      -44.016096   1.000000   1.000000
      4        -39.667351      -39.667351   1.000000   1.000000
      5        -39.663306      -39.663306   1.000000   1.000000
      6        -39.662139      -39.662139   1.000000   1.000000
      7         -4.637067       -4.637067   1.000000   1.000000
      8         -4.495360       -4.495360   1.000000   1.000000
      9          0.870955        0.870955   1.000000   1.000000
     10          1.691641        1.691641   1.000000   1.000000
     11          2.763202        2.763202   1.000000   1.000000
     12          2.812975        2.812975   1.000000   1.000000
     13          3.325778        3.325778   1.000000   1.000000
     14          3.531732        3.531732   1.000000   1.000000
     15          3.665394        3.665394   1.000000   1.000000
     16          3.831969        3.831969   1.000000   1.000000
     17          4.000972        4.000972   1.000000   1.000000
     18          5.412205        5.412205   1.000000   1.000000
     19          5.562056        5.562056   1.000000   1.000000
     20          6.813806        6.813806   0.000002   0.000002
     21          7.596314        7.596313   0.000000   0.000000
     22          7.609461        7.609461   0.000000   0.000000
     23          7.912062        7.912062   0.000000   0.000000
     24          8.255527        8.255527   0.000000   0.000000
 
  0.0000000E+00  0.1250000E+00  0.2500000E+00  0.3125000E-01
      1        -44.022110      -44.022109   1.000000   1.000000
      2        -44.021955      -44.021956   1.000000   1.000000
      3        -44.016234      -44.016234   1.000000   1.000000
      4        -39.667575      -39.667574   1.000000   1.000000
      5        -39.661973      -39.661973   1.000000   1.000000
      6        -39.661754      -39.661759   1.000000   1.000000
      7         -5.642683       -5.642305   1.000000   1.000000
      8         -4.820210       -4.820939   1.000000   1.000000
      9          1.357630        1.365352   1.000000   1.000000
     10          2.753691        2.731190   1.000000   1.000000
     11          2.853585        2.879773   1.000000   1.000000
     12          3.329583        3.346670   1.000000   1.000000
     13          3.443834        3.445992   1.000000   1.000000
     14          3.454517        3.480923   1.000000   1.000000
     15          4.040337        4.076352   1.000000   1.000000
     16          5.023042        4.713131   1.000000   1.000000
     17          5.342332        5.103200   1.000000   1.000000
     18          5.584989        5.647403   1.000000   1.000000
     19          5.723781        6.256143   1.000000   1.000000
     20          7.122737        7.193668   0.000000   0.000000
     21          7.444722        7.368186   0.000000   0.000000
     22          7.453123        7.551299   0.000000   0.000000
     23          7.955791        8.012433   0.000000   0.000000
     24          8.540833        8.235695   0.000000   0.000000
 
  0.2500000E+00  0.1250000E+00  0.2500000E+00  0.6250000E-01
      1        -44.022689      -44.022689   1.000000   1.000000
      2        -44.022192      -44.022192   1.000000   1.000000
      3        -44.016123      -44.016123   1.000000   1.000000
      4        -39.667402      -39.667398   1.000000   1.000000
      5        -39.662834      -39.662831   1.000000   1.000000
      6        -39.662097      -39.662095   1.000000   1.000000
      7         -5.044522       -5.048529   1.000000   1.000000
      8         -4.536221       -4.530046   1.000000   1.000000
      9          1.671749        1.575742   1.000000   1.000000
     10          1.886613        1.860469   1.000000   1.000000
     11          2.692723        2.724042   1.000000   1.000000
     12          2.873009        2.799581   1.000000   1.000000
     13          3.099149        3.178027   1.000000   1.000000
     14          3.392021        3.574009   1.000000   1.000000
     15          3.602394        3.655894   1.000000   1.000000
     16          3.901754        4.090621   1.000000   1.000000
     17          4.311070        4.552490   1.000000   1.000000
     18          5.356962        4.841224   1.000000   1.000000
     19          5.940259        5.538403   1.000000   1.000000
     20          7.118677        7.210846   0.000000   0.000000
     21          7.566968        7.424879   0.000000   0.000000
     22          7.635842        7.690075   0.000000   0.000000
     23          7.792168        7.896312   0.000000   0.000000
     24          8.109836        8.404786   0.000000   0.000000
 
  0.5000000E+00  0.1250000E+00  0.2500000E+00  0.6250000E-01
      1        -44.022911      -44.022911   1.000000   1.000000
      2        -44.022291      -44.022290   1.000000   1.000000
      3        -44.016076      -44.016077   1.000000   1.000000
      4        -39.667325      -39.667329   1.000000   1.000000
      5        -39.663162      -39.663168   1.000000   1.000000
      6        -39.662239      -39.662238   1.000000   1.000000
      7         -4.685206       -4.675308   1.000000   1.000000
      8         -4.451696       -4.463717   1.000000   1.000000
      9          1.039276        1.083960   1.000000   1.000000
     10          1.760273        1.797184   1.000000   1.000000
     11          2.687614        2.724352   1.000000   1.000000
     12          2.835806        2.788371   1.000000   1.000000
     13          3.121538        3.055980   1.000000   1.000000
     14          3.363986        3.211548   1.000000   1.000000
     15          3.695957        3.726486   1.000000   1.000000
     16          3.791386        3.779525   1.000000   1.000000
     17          4.238023        4.065203   1.000000   1.000000
     18          4.999765        5.250679   1.000000   1.000000
     19          5.383911        5.684473   1.000000   1.000000
     20          7.107381        6.988607   0.000000   0.000000
     21          7.543689        7.592169   0.000000   0.000000
     22          7.617504        7.617598   0.000000   0.000000
     23          7.890539        7.911239   0.000000   0.000000
     24          8.280154        7.956404   0.000000   0.000000
 
 -0.2500000E+00  0.1250000E+00  0.2500000E+00  0.3125000E-01
      1        -44.022346      -44.022346   1.000000   1.000000
      2        -44.022071      -44.022071   1.000000   1.000000
      3        -44.016196      -44.016196   1.000000   1.000000
      4        -39.667513      -39.667513   1.000000   1.000000
      5        -39.662331      -39.662331   1.000000   1.000000
      6        -39.661913      -39.661913   1.000000   1.000000
      7         -5.421452       -5.421452   1.000000   1.000000
      8         -4.700543       -4.700543   1.000000   1.000000
      9          1.528383        1.528382   1.000000   1.000000
     10          2.588507        2.588507   1.000000   1.000000
     11          2.777995        2.777995   1.000000   1.000000
     12          2.970421        2.970421   1.000000   1.000000
     13          3.285124        3.285124   1.000000   1.000000
     14          3.512369        3.512369   1.000000   1.000000
     15          3.839127        3.839127   1.000000   1.000000
     16          4.384731        4.384731   1.000000   1.000000
     17          4.736435        4.736435   1.000000   1.000000
     18          5.597264        5.597264   1.000000   1.000000
     19          5.755604        5.755605   1.000000   1.000000
     20          7.256967        7.256967   0.000000   0.000000
     21          7.326623        7.326623   0.000000   0.000000
     22          7.627411        7.627412   0.000000   0.000000
     23          7.944800        7.944799   0.000000   0.000000
     24          8.149682        8.149682   0.000000   0.000000
 
  0.2500000E+00  0.2500000E+00  0.2500000E+00  0.9375000E-01
      1        -44.022809      -44.022809   1.000000   1.000000
      2        -44.022406      -44.022406   1.000000   1.000000
      3        -44.016084      -44.016084   1.000000   1.000000
      4        -39.667336      -39.667336   1.000000   1.000000
      5        -39.663007      -39.663007   1.000000   1.000000
      6        -39.662412      -39.662412   1.000000   1.000000
      7         -4.712149       -4.712149   1.000000   1.000000
      8         -4.431374       -4.431374   1.000000   1.000000
      9          1.371843        1.371843   1.000000   1.000000
     10          1.811784        1.811783   1.000000   1.000000
     11          2.468337        2.468338   1.000000   1.000000
     12          2.776085        2.776086   1.000000   1.000000
     13          2.921737        2.921737   1.000000   1.000000
     14          3.219835        3.219832   1.000000   1.000000
     15          3.729757        3.729758   1.000000   1.000000
     16          3.835627        3.835626   1.000000   1.000000
     17          4.121749        4.121747   1.000000   1.000000
     18          4.872601        4.872606   1.000000   1.000000
     19          5.546668        5.546668   1.000000   1.000000
     20          7.274152        7.274154   0.000000   0.000000
     21          7.477846        7.477845   0.000000   0.000000
     22          7.646226        7.646229   0.000000   0.000000
     23          7.855236        7.855229   0.000000   0.000000
     24          8.303738        8.303744   0.000000   0.000000
 
  0.0000000E+00  0.3750000E+00  0.2500000E+00  0.3125000E-01
      1        -44.022860      -44.022861   1.000000   1.000000
      2        -44.022160      -44.022159   1.000000   1.000000
      3        -44.016104      -44.016104   1.000000   1.000000
      4        -39.667367      -39.667373   1.000000   1.000000
      5        -39.663077      -39.663086   1.000000   1.000000
      6        -39.662050      -39.662049   1.000000   1.000000
      7         -4.906256       -4.895963   1.000000   1.000000
      8         -4.491808       -4.506326   1.000000   1.000000
      9          1.203540        1.309265   1.000000   1.000000
     10          1.739483        1.798979   1.000000   1.000000
     11          2.746052        2.815288   1.000000   1.000000
     12          2.824777        2.865993   1.000000   1.000000
     13          3.411482        3.061809   1.000000   1.000000
     14          3.525525        3.505022   1.000000   1.000000
     15          3.614460        3.508680   1.000000   1.000000
     16          4.283767        3.834980   1.000000   1.000000
     17          4.334722        4.172522   1.000000   1.000000
     18          4.886184        5.715665   1.000000   1.000000
     19          5.448754        6.040951   1.000000   1.000000
     20          6.838200        6.839896   0.000000   0.000000
     21          7.601965        7.547150   0.000000   0.000000
     22          7.643860        7.610952   0.000000   0.000000
     23          8.310632        7.839646   0.000000   0.000000
     24          8.422035        8.227121   0.000000   0.000000
 
  0.2500000E+00  0.3750000E+00  0.2500000E+00  0.3125000E-01
      1        -44.022826      -44.022826   1.000000   1.000000
      2        -44.022516      -44.022516   1.000000   1.000000
      3        -44.016064      -44.016064   1.000000   1.000000
      4        -39.667305      -39.667305   1.000000   1.000000
      5        -39.663030      -39.663030   1.000000   1.000000
      6        -39.662579      -39.662579   1.000000   1.000000
      7         -4.511571       -4.511571   1.000000   1.000000
      8         -4.433874       -4.433874   1.000000   1.000000
      9          1.186988        1.186988   1.000000   1.000000
     10          1.961937        1.961937   1.000000   1.000000
     11          2.197202        2.197202   1.000000   1.000000
     12          2.697193        2.697193   1.000000   1.000000
     13          2.936679        2.936679   1.000000   1.000000
     14          3.084827        3.084826   1.000000   1.000000
     15          3.661577        3.661577   1.000000   1.000000
     16          3.855849        3.855849   1.000000   1.000000
     17          4.005536        4.005536   1.000000   1.000000
     18          5.051579        5.051579   1.000000   1.000000
     19          5.331899        5.331899   1.000000   1.000000
     20          7.180103        7.180103   0.000000   0.000000
     21          7.559429        7.559431   0.000000   0.000000
     22          7.651158        7.651157   0.000000   0.000000
     23          7.943453        7.943453   0.000000   0.000000
     24          8.141900        8.141900   0.000000   0.000000
 
  0.0000000E+00  0.0000000E+00  0.5000000E+00  0.7812500E-02
      1        -44.021919      -44.021919   1.000000   1.000000
      2        -44.021897      -44.021897   1.000000   1.000000
      3        -44.016255      -44.016255   1.000000   1.000000
      4        -39.667625      -39.667625   1.000000   1.000000
      5        -39.661696      -39.661696   1.000000   1.000000
      6        -39.661672      -39.661672   1.000000   1.000000
      7         -5.396317       -5.396317   1.000000   1.000000
      8         -5.349588       -5.349588   1.000000   1.000000
      9          2.282392        2.282392   1.000000   1.000000
     10          2.895855        2.895855   1.000000   1.000000
     11          2.895859        2.895859   1.000000   1.000000
     12          2.898692        2.898692   1.000000   1.000000
     13          3.487461        3.487461   1.000000   1.000000
     14          3.487467        3.487467   1.000000   1.000000
     15          3.986657        3.986657   1.000000   1.000000
     16          4.653750        4.653750   1.000000   1.000000
     17          4.653752        4.653752   1.000000   1.000000
     18          6.620445        6.620445   0.815806   0.815806
     19          6.620446        6.620446   0.815797   0.815797
     20          7.123768        7.123768   0.000000   0.000000
     21          7.174254        7.174254   0.000000   0.000000
     22          7.174257        7.174257   0.000000   0.000000
     23          8.393317        8.393317   0.000000   0.000000
     24          8.393323        8.393323   0.000000   0.000000
 
  0.2500000E+00  0.4550410E-16  0.5000000E+00  0.4687500E-01
      1        -44.022473      -44.022473   1.000000   1.000000
      2        -44.022072      -44.022072   1.000000   1.000000
      3        -44.016173      -44.016173   1.000000   1.000000
      4        -39.667493      -39.667493   1.000000   1.000000
      5        -39.662519      -39.662519   1.000000   1.000000
      6        -39.661919      -39.661919   1.000000   1.000000
      7         -5.024372       -5.024372   1.000000   1.000000
      8         -4.998000       -4.998000   1.000000   1.000000
      9          1.909389        1.909389   1.000000   1.000000
     10          2.045443        2.045443   1.000000   1.000000
     11          2.888400        2.888400   1.000000   1.000000
     12          2.910935        2.910935   1.000000   1.000000
     13          3.404920        3.404920   1.000000   1.000000
     14          3.499886        3.499886   1.000000   1.000000
     15          3.911565        3.911565   1.000000   1.000000
     16          4.330941        4.330941   1.000000   1.000000
     17          4.534008        4.534008   1.000000   1.000000
     18          5.180146        5.180146   1.000000   1.000000
     19          5.799472        5.799472   1.000000   1.000000
     20          6.910663        6.910663   0.000000   0.000000
     21          7.401931        7.401931   0.000000   0.000000
     22          7.677109        7.677109   0.000000   0.000000
     23          7.883268        7.883268   0.000000   0.000000
     24          8.012160        8.012160   0.000000   0.000000
 
  0.5000000E+00  0.9100819E-16  0.5000000E+00  0.2343750E-01
      1        -44.023014      -44.023014   1.000000   1.000000
      2        -44.022210      -44.022210   1.000000   1.000000
      3        -44.016074      -44.016074   1.000000   1.000000
      4        -39.667341      -39.667341   1.000000   1.000000
      5        -39.663316      -39.663316   1.000000   1.000000
      6        -39.662121      -39.662121   1.000000   1.000000
      7         -4.573561       -4.573561   1.000000   1.000000
      8         -4.548210       -4.548210   1.000000   1.000000
      9          0.974168        0.974168   1.000000   1.000000
     10          1.242581        1.242581   1.000000   1.000000
     11          2.762404        2.762404   1.000000   1.000000
     12          2.805106        2.805106   1.000000   1.000000
     13          3.425830        3.425830   1.000000   1.000000
     14          3.665717        3.665717   1.000000   1.000000
     15          3.797956        3.797956   1.000000   1.000000
     16          3.880798        3.880798   1.000000   1.000000
     17          4.020377        4.020377   1.000000   1.000000
     18          5.642399        5.642399   1.000000   1.000000
     19          5.893516        5.893516   1.000000   1.000000
     20          6.693331        6.693331   0.122609   0.122609
     21          7.564451        7.564451   0.000000   0.000000
     22          7.639295        7.639295   0.000000   0.000000
     23          7.929486        7.929486   0.000000   0.000000
     24          8.216705        8.220825   0.000000   0.000000
 
  0.0000000E+00  0.1250000E+00  0.5000000E+00  0.1562500E-01
      1        -44.022104      -44.022104   1.000000   1.000000
      2        -44.021961      -44.021961   1.000000   1.000000
      3        -44.016237      -44.016237   1.000000   1.000000
      4        -39.667595      -39.667595   1.000000   1.000000
      5        -39.661965      -39.661965   1.000000   1.000000
      6        -39.661763      -39.661763   1.000000   1.000000
      7         -5.294407       -5.294407   1.000000   1.000000
      8         -5.253069       -5.253069   1.000000   1.000000
      9          2.311108        2.311108   1.000000   1.000000
     10          2.392939        2.392939   1.000000   1.000000
     11          2.911810        2.911810   1.000000   1.000000
     12          3.315120        3.315120   1.000000   1.000000
     13          3.431619        3.431619   1.000000   1.000000
     14          3.440325        3.440325   1.000000   1.000000
     15          3.647981        3.647981   1.000000   1.000000
     16          4.648490        4.648490   1.000000   1.000000
     17          4.891053        4.891053   1.000000   1.000000
     18          5.575415        5.575415   1.000000   1.000000
     19          6.218666        6.218666   1.000000   1.000000
     20          7.097893        7.097893   0.000000   0.000000
     21          7.469936        7.469936   0.000000   0.000000
     22          7.619208        7.619208   0.000000   0.000000
     23          7.786005        7.786005   0.000000   0.000000
     24          8.250381        8.250381   0.000000   0.000000
 
  0.2500000E+00  0.1250000E+00  0.5000000E+00  0.3125000E-01
      1        -44.022687      -44.022687   1.000000   1.000000
      2        -44.022195      -44.022195   1.000000   1.000000
      3        -44.016130      -44.016130   1.000000   1.000000
      4        -39.667424      -39.667424   1.000000   1.000000
      5        -39.662832      -39.662832   1.000000   1.000000
      6        -39.662100      -39.662100   1.000000   1.000000
      7         -4.809758       -4.809758   1.000000   1.000000
      8         -4.795644       -4.795644   1.000000   1.000000
      9          1.651729        1.651729   1.000000   1.000000
     10          1.702274        1.702274   1.000000   1.000000
     11          2.854888        2.854888   1.000000   1.000000
     12          2.914190        2.914190   1.000000   1.000000
     13          3.147691        3.147691   1.000000   1.000000
     14          3.593254        3.593254   1.000000   1.000000
     15          3.666292        3.666292   1.000000   1.000000
     16          4.094772        4.094772   1.000000   1.000000
     17          4.365750        4.365750   1.000000   1.000000
     18          5.180687        5.180687   1.000000   1.000000
     19          5.455766        5.455766   1.000000   1.000000
     20          7.137643        7.137643   0.000000   0.000000
     21          7.397440        7.397440   0.000000   0.000000
     22          7.615036        7.615036   0.000000   0.000000
     23          7.864950        7.864950   0.000000   0.000000
     24          8.041571        8.041571   0.000000   0.000000
 
  0.5000000E+00  0.1250000E+00  0.5000000E+00  0.3125000E-01
      1        -44.022904      -44.022904   1.000000   1.000000
      2        -44.022300      -44.022300   1.000000   1.000000
      3        -44.016079      -44.016079   1.000000   1.000000
      4        -39.667346      -39.667346   1.000000   1.000000
      5        -39.663156      -39.663156   1.000000   1.000000
      6        -39.662250      -39.662250   1.000000   1.000000
      7         -4.575399       -4.575399   1.000000   1.000000
      8         -4.557582       -4.557582   1.000000   1.000000
      9          1.167880        1.167880   1.000000   1.000000
     10          1.397143        1.397143   1.000000   1.000000
     11          2.707814        2.707814   1.000000   1.000000
     12          2.789523        2.789523   1.000000   1.000000
     13          3.198044        3.198044   1.000000   1.000000
     14          3.434501        3.434501   1.000000   1.000000
     15          3.734464        3.734464   1.000000   1.000000
     16          3.893330        3.893330   1.000000   1.000000
     17          3.958521        3.958521   1.000000   1.000000
     18          5.384720        5.384720   1.000000   1.000000
     19          5.727816        5.727816   1.000000   1.000000
     20          6.990011        6.990011   0.000000   0.000000
     21          7.584737        7.584737   0.000000   0.000000
     22          7.608267        7.608267   0.000000   0.000000
     23          7.966742        7.966742   0.000000   0.000000
     24          8.314350        8.314350   0.000000   0.000000
 
 -0.2500000E+00  0.1250000E+00  0.5000000E+00  0.1562500E-01
      1        -44.022336      -44.022336   1.000000   1.000000
      2        -44.022068      -44.022068   1.000000   1.000000
      3        -44.016185      -44.016185   1.000000   1.000000
      4        -39.667515      -39.667515   1.000000   1.000000
      5        -39.662319      -39.662319   1.000000   1.000000
      6        -39.661909      -39.661909   1.000000   1.000000
      7         -5.107600       -5.107600   1.000000   1.000000
      8         -5.076773       -5.076773   1.000000   1.000000
      9          2.058804        2.058804   1.000000   1.000000
     10          2.216584        2.216584   1.000000   1.000000
     11          2.860453        2.860453   1.000000   1.000000
     12          3.056269        3.056269   1.000000   1.000000
     13          3.259543        3.259543   1.000000   1.000000
     14          3.576566        3.576566   1.000000   1.000000
     15          3.820720        3.820720   1.000000   1.000000
     16          4.438231        4.438231   1.000000   1.000000
     17          4.911491        4.911491   1.000000   1.000000
     18          4.976964        4.976964   1.000000   1.000000
     19          5.643026        5.643026   1.000000   1.000000
     20          7.228830        7.228830   0.000000   0.000000
     21          7.352710        7.352710   0.000000   0.000000
     22          7.669329        7.669329   0.000000   0.000000
     23          7.771188        7.771188   0.000000   0.000000
     24          8.011639        8.011638   0.000000   0.000000
 
  0.2500000E+00  0.2500000E+00  0.5000000E+00  0.4687500E-01
      1        -44.022802      -44.022802   1.000000   1.000000
      2        -44.022401      -44.022401   1.000000   1.000000
      3        -44.016089      -44.016089   1.000000   1.000000
      4        -39.667356      -39.667356   1.000000   1.000000
      5        -39.662999      -39.662999   1.000000   1.000000
      6        -39.662405      -39.662405   1.000000   1.000000
      7         -4.572743       -4.572743   1.000000   1.000000
      8         -4.571363       -4.571363   1.000000   1.000000
      9          1.456363        1.456363   1.000000   1.000000
     10          1.592122        1.592122   1.000000   1.000000
     11          2.570245        2.570245   1.000000   1.000000
     12          2.633654        2.633654   1.000000   1.000000
     13          3.020778        3.020778   1.000000   1.000000
     14          3.210764        3.210764   1.000000   1.000000
     15          3.721517        3.721517   1.000000   1.000000
     16          3.842581        3.842581   1.000000   1.000000
     17          3.936105        3.936105   1.000000   1.000000
     18          5.386430        5.386430   1.000000   1.000000
     19          5.478322        5.478322   1.000000   1.000000
     20          7.274789        7.274789   0.000000   0.000000
     21          7.415223        7.415223   0.000000   0.000000
     22          7.626273        7.626273   0.000000   0.000000
     23          8.133505        8.133505   0.000000   0.000000
     24          8.215595        8.215595   0.000000   0.000000
 
  0.0000000E+00  0.3750000E+00  0.5000000E+00  0.1562500E-01
      1        -44.022859      -44.022859   1.000000   1.000000
      2        -44.022152      -44.022152   1.000000   1.000000
      3        -44.016108      -44.016108   1.000000   1.000000
      4        -39.667390      -39.667390   1.000000   1.000000
      5        -39.663081      -39.663081   1.000000   1.000000
      6        -39.662041      -39.662041   1.000000   1.000000
      7         -4.714026       -4.714026   1.000000   1.000000
      8         -4.696516       -4.696516   1.000000   1.000000
      9          1.302541        1.302541   1.000000   1.000000
     10          1.468571        1.468571   1.000000   1.000000
     11          2.844805        2.844805   1.000000   1.000000
     12          2.865127        2.865127   1.000000   1.000000
     13          3.451912        3.451912   1.000000   1.000000
     14          3.521242        3.521242   1.000000   1.000000
     15          3.601419        3.601419   1.000000   1.000000
     16          4.171644        4.171644   1.000000   1.000000
     17          4.241446        4.241446   1.000000   1.000000
     18          5.521005        5.521005   1.000000   1.000000
     19          5.657513        5.657513   1.000000   1.000000
     20          6.774312        6.774312   0.000278   0.000278
     21          7.537621        7.537621   0.000000   0.000000
     22          7.623359        7.623359   0.000000   0.000000
     23          7.934292        7.934292   0.000000   0.000000
     24          7.984067        7.984067   0.000000   0.000000
 
  0.2500000E+00  0.3750000E+00  0.5000000E+00  0.1562500E-01
      1        -44.022835      -44.022835   1.000000   1.000000
      2        -44.022527      -44.022527   1.000000   1.000000
      3        -44.016070      -44.016070   1.000000   1.000000
      4        -39.667328      -39.667328   1.000000   1.000000
      5        -39.663040      -39.663040   1.000000   1.000000
      6        -39.662593      -39.662593   1.000000   1.000000
      7         -4.472763       -4.472763   1.000000   1.000000
      8         -4.464365       -4.464365   1.000000   1.000000
      9          1.438287        1.438287   1.000000   1.000000
     10          1.660923        1.660923   1.000000   1.000000
     11          2.236570        2.236570   1.000000   1.000000
     12          2.331819        2.331819   1.000000   1.000000
     13          3.006257        3.006257   1.000000   1.000000
     14          3.125324        3.125324   1.000000   1.000000
     15          3.664565        3.664565   1.000000   1.000000
     16          3.811691        3.811691   1.000000   1.000000
     17          3.839771        3.839771   1.000000   1.000000
     18          5.403692        5.403692   1.000000   1.000000
     19          5.651371        5.651371   1.000000   1.000000
     20          7.237137        7.237137   0.000000   0.000000
     21          7.551034        7.551034   0.000000   0.000000
     22          7.598838        7.598838   0.000000   0.000000
     23          8.273032        8.273032   0.000000   0.000000
     24          8.612245        8.612245   0.000000   0.000000
