       N       E                     dE             d eps       ncg     rms          rms(c)
DAV:   1     0.241280102486E+03    0.24128E+03   -0.21107E+04  3348   0.151E+03
DAV:   2    -0.122717254532E+02   -0.25355E+03   -0.25219E+03  2904   0.357E+02
DAV:   3    -0.260306295484E+02   -0.13759E+02   -0.13567E+02  3936   0.854E+01
DAV:   4    -0.262373175014E+02   -0.20669E+00   -0.20666E+00  3432   0.110E+01
DAV:   5    -0.262411207866E+02   -0.38033E-02   -0.38032E-02  4080   0.141E+00    0.122E+01
DAV:   6    -0.249456882098E+02    0.12954E+01   -0.25605E+01  4260   0.433E+01    0.120E+01
DAV:   7    -0.247656064273E+02    0.18008E+00   -0.42229E+00  3564   0.207E+01    0.603E+00
DAV:   8    -0.247848087831E+02   -0.19202E-01   -0.17525E-01  3588   0.292E+00    0.335E+00
DAV:   9    -0.247751903217E+02    0.96185E-02   -0.89961E-02  3372   0.249E+00    0.915E-01
DAV:  10    -0.247800946099E+02   -0.49043E-02   -0.23069E-02  2952   0.162E+00    0.211E-01
DAV:  11    -0.247801221487E+02   -0.27539E-04   -0.35148E-03  3792   0.387E-01    0.899E-02
DAV:  12    -0.247801952899E+02   -0.73141E-04   -0.44652E-04  3552   0.194E-01    0.906E-02
DAV:  13    -0.247802139364E+02   -0.18647E-04   -0.38777E-05  3492   0.361E-02    0.624E-02
DAV:  14    -0.247802282788E+02   -0.14342E-04   -0.33813E-05  3036   0.427E-02    0.111E-02
DAV:  15    -0.247802297653E+02   -0.14864E-05   -0.55587E-06  3468   0.183E-02    0.979E-03
DAV:  16    -0.247802299677E+02   -0.20241E-06   -0.26802E-06  2964   0.670E-03
   1 F= -.24780230E+02 E0= -.24779914E+02  d E =-.631875E-03  mag=     0.0000
