Mn2 Te2                                 
   1.00000000000000     
     4.1500000000000004    0.0000000000000000    0.0000000000000000
    -2.0750000000000002    3.5939999999999999    0.0000000000000000
     0.0000000000000000    0.0000000000000000    6.7199999999999998
   Mn   Te
     2     2
Direct
  0.0000000000000000  0.0000000000000000  0.0000000000000000
  0.0000000000000000  0.0000000000000000  0.5000000000000000
  0.3333333429999996  0.6666666870000029  0.2500000000000000
  0.6666666570000004  0.3333333129999971  0.7500000000000000
 
  0.00000000E+00  0.00000000E+00  0.00000000E+00
  0.00000000E+00  0.00000000E+00  0.00000000E+00
  0.00000000E+00  0.00000000E+00  0.00000000E+00
  0.00000000E+00  0.00000000E+00  0.00000000E+00
