   4   4   0   0
  0.2546802E+02  0.4173490E-09  0.4173490E-09  0.6753451E-09  0.5000000E-15
  1.000000000000000E-004
  CAR 
 unknown system                          
     11.10379957    -46.86712196  301      6.49777967      1.00000000
    -46.867  0.0000E+00  0.0000E+00  0.0000E+00  0.0000E+00
    -46.674  0.0000E+00  0.0000E+00  0.0000E+00  0.0000E+00
    -46.481  0.0000E+00  0.0000E+00  0.0000E+00  0.0000E+00
    -46.287  0.0000E+00  0.0000E+00  0.0000E+00  0.0000E+00
    -46.094  0.0000E+00  0.0000E+00  0.0000E+00  0.0000E+00
    -45.901  0.0000E+00  0.0000E+00  0.0000E+00  0.0000E+00
    -45.708  0.0000E+00  0.0000E+00  0.0000E+00  0.0000E+00
    -45.514  0.0000E+00  0.0000E+00  0.0000E+00  0.0000E+00
    -45.321  0.0000E+00  0.0000E+00  0.0000E+00  0.0000E+00
    -45.128  0.0000E+00  0.0000E+00  0.0000E+00  0.0000E+00
    -44.935  0.0000E+00  0.0000E+00  0.0000E+00  0.0000E+00
    -44.742  0.0000E+00  0.0000E+00  0.0000E+00  0.0000E+00
    -44.548  0.0000E+00  0.0000E+00  0.0000E+00  0.0000E+00
    -44.355  0.3360E-02  0.3360E-02  0.6492E-03  0.6492E-03
    -44.162  0.1512E+02  0.1512E+02  0.2921E+01  0.2921E+01
    -43.969  0.4063E+00  0.4063E+00  0.3000E+01  0.3000E+01
    -43.775  0.0000E+00  0.0000E+00  0.3000E+01  0.3000E+01
    -43.582  0.0000E+00  0.0000E+00  0.3000E+01  0.3000E+01
    -43.389  0.0000E+00  0.0000E+00  0.3000E+01  0.3000E+01
    -43.196  0.0000E+00  0.0000E+00  0.3000E+01  0.3000E+01
    -43.002  0.0000E+00  0.0000E+00  0.3000E+01  0.3000E+01
    -42.809  0.0000E+00  0.0000E+00  0.3000E+01  0.3000E+01
    -42.616  0.0000E+00  0.0000E+00  0.3000E+01  0.3000E+01
    -42.423  0.0000E+00  0.0000E+00  0.3000E+01  0.3000E+01
    -42.229  0.0000E+00  0.0000E+00  0.3000E+01  0.3000E+01
    -42.036  0.0000E+00  0.0000E+00  0.3000E+01  0.3000E+01
    -41.843  0.0000E+00  0.0000E+00  0.3000E+01  0.3000E+01
    -41.650  0.0000E+00  0.0000E+00  0.3000E+01  0.3000E+01
    -41.457  0.0000E+00  0.0000E+00  0.3000E+01  0.3000E+01
    -41.263  0.0000E+00  0.0000E+00  0.3000E+01  0.3000E+01
    -41.070  0.0000E+00  0.0000E+00  0.3000E+01  0.3000E+01
    -40.877  0.0000E+00  0.0000E+00  0.3000E+01  0.3000E+01
    -40.684  0.0000E+00  0.0000E+00  0.3000E+01  0.3000E+01
    -40.490  0.0000E+00  0.0000E+00  0.3000E+01  0.3000E+01
    -40.297  0.0000E+00  0.0000E+00  0.3000E+01  0.3000E+01
    -40.104  0.3321E-11  0.3321E-11  0.3000E+01  0.3000E+01
    -39.911  0.5562E+00  0.5561E+00  0.3107E+01  0.3107E+01
    -39.717  0.1497E+02  0.1497E+02  0.6000E+01  0.6000E+01
    -39.524  0.2066E-02  0.2066E-02  0.6000E+01  0.6000E+01
    -39.331  0.0000E+00  0.0000E+00  0.6000E+01  0.6000E+01
    -39.138  0.0000E+00  0.0000E+00  0.6000E+01  0.6000E+01
    -38.944  0.0000E+00  0.0000E+00  0.6000E+01  0.6000E+01
    -38.751  0.0000E+00  0.0000E+00  0.6000E+01  0.6000E+01
    -38.558  0.0000E+00  0.0000E+00  0.6000E+01  0.6000E+01
    -38.365  0.0000E+00  0.0000E+00  0.6000E+01  0.6000E+01
    -38.171  0.0000E+00  0.0000E+00  0.6000E+01  0.6000E+01
    -37.978  0.0000E+00  0.0000E+00  0.6000E+01  0.6000E+01
    -37.785  0.0000E+00  0.0000E+00  0.6000E+01  0.6000E+01
    -37.592  0.0000E+00  0.0000E+00  0.6000E+01  0.6000E+01
    -37.399  0.0000E+00  0.0000E+00  0.6000E+01  0.6000E+01
    -37.205  0.0000E+00  0.0000E+00  0.6000E+01  0.6000E+01
    -37.012  0.0000E+00  0.0000E+00  0.6000E+01  0.6000E+01
    -36.819  0.0000E+00  0.0000E+00  0.6000E+01  0.6000E+01
    -36.626  0.0000E+00  0.0000E+00  0.6000E+01  0.6000E+01
    -36.432  0.0000E+00  0.0000E+00  0.6000E+01  0.6000E+01
    -36.239  0.0000E+00  0.0000E+00  0.6000E+01  0.6000E+01
    -36.046  0.0000E+00  0.0000E+00  0.6000E+01  0.6000E+01
    -35.853  0.0000E+00  0.0000E+00  0.6000E+01  0.6000E+01
    -35.659  0.0000E+00  0.0000E+00  0.6000E+01  0.6000E+01
    -35.466  0.0000E+00  0.0000E+00  0.6000E+01  0.6000E+01
    -35.273  0.0000E+00  0.0000E+00  0.6000E+01  0.6000E+01
    -35.080  0.0000E+00  0.0000E+00  0.6000E+01  0.6000E+01
    -34.886  0.0000E+00  0.0000E+00  0.6000E+01  0.6000E+01
    -34.693  0.0000E+00  0.0000E+00  0.6000E+01  0.6000E+01
    -34.500  0.0000E+00  0.0000E+00  0.6000E+01  0.6000E+01
    -34.307  0.0000E+00  0.0000E+00  0.6000E+01  0.6000E+01
    -34.114  0.0000E+00  0.0000E+00  0.6000E+01  0.6000E+01
    -33.920  0.0000E+00  0.0000E+00  0.6000E+01  0.6000E+01
    -33.727  0.0000E+00  0.0000E+00  0.6000E+01  0.6000E+01
    -33.534  0.0000E+00  0.0000E+00  0.6000E+01  0.6000E+01
    -33.341  0.0000E+00  0.0000E+00  0.6000E+01  0.6000E+01
    -33.147  0.0000E+00  0.0000E+00  0.6000E+01  0.6000E+01
    -32.954  0.0000E+00  0.0000E+00  0.6000E+01  0.6000E+01
    -32.761  0.0000E+00  0.0000E+00  0.6000E+01  0.6000E+01
    -32.568  0.0000E+00  0.0000E+00  0.6000E+01  0.6000E+01
    -32.374  0.0000E+00  0.0000E+00  0.6000E+01  0.6000E+01
    -32.181  0.0000E+00  0.0000E+00  0.6000E+01  0.6000E+01
    -31.988  0.0000E+00  0.0000E+00  0.6000E+01  0.6000E+01
    -31.795  0.0000E+00  0.0000E+00  0.6000E+01  0.6000E+01
    -31.601  0.0000E+00  0.0000E+00  0.6000E+01  0.6000E+01
    -31.408  0.0000E+00  0.0000E+00  0.6000E+01  0.6000E+01
    -31.215  0.0000E+00  0.0000E+00  0.6000E+01  0.6000E+01
    -31.022  0.0000E+00  0.0000E+00  0.6000E+01  0.6000E+01
    -30.829  0.0000E+00  0.0000E+00  0.6000E+01  0.6000E+01
    -30.635  0.0000E+00  0.0000E+00  0.6000E+01  0.6000E+01
    -30.442  0.0000E+00  0.0000E+00  0.6000E+01  0.6000E+01
    -30.249  0.0000E+00  0.0000E+00  0.6000E+01  0.6000E+01
    -30.056  0.0000E+00  0.0000E+00  0.6000E+01  0.6000E+01
    -29.862  0.0000E+00  0.0000E+00  0.6000E+01  0.6000E+01
    -29.669  0.0000E+00  0.0000E+00  0.6000E+01  0.6000E+01
    -29.476  0.0000E+00  0.0000E+00  0.6000E+01  0.6000E+01
    -29.283  0.0000E+00  0.0000E+00  0.6000E+01  0.6000E+01
    -29.089  0.0000E+00  0.0000E+00  0.6000E+01  0.6000E+01
    -28.896  0.0000E+00  0.0000E+00  0.6000E+01  0.6000E+01
    -28.703  0.0000E+00  0.0000E+00  0.6000E+01  0.6000E+01
    -28.510  0.0000E+00  0.0000E+00  0.6000E+01  0.6000E+01
    -28.316  0.0000E+00  0.0000E+00  0.6000E+01  0.6000E+01
    -28.123  0.0000E+00  0.0000E+00  0.6000E+01  0.6000E+01
    -27.930  0.0000E+00  0.0000E+00  0.6000E+01  0.6000E+01
    -27.737  0.0000E+00  0.0000E+00  0.6000E+01  0.6000E+01
    -27.543  0.0000E+00  0.0000E+00  0.6000E+01  0.6000E+01
    -27.350  0.0000E+00  0.0000E+00  0.6000E+01  0.6000E+01
    -27.157  0.0000E+00  0.0000E+00  0.6000E+01  0.6000E+01
    -26.964  0.0000E+00  0.0000E+00  0.6000E+01  0.6000E+01
    -26.771  0.0000E+00  0.0000E+00  0.6000E+01  0.6000E+01
    -26.577  0.0000E+00  0.0000E+00  0.6000E+01  0.6000E+01
    -26.384  0.0000E+00  0.0000E+00  0.6000E+01  0.6000E+01
    -26.191  0.0000E+00  0.0000E+00  0.6000E+01  0.6000E+01
    -25.998  0.0000E+00  0.0000E+00  0.6000E+01  0.6000E+01
    -25.804  0.0000E+00  0.0000E+00  0.6000E+01  0.6000E+01
    -25.611  0.0000E+00  0.0000E+00  0.6000E+01  0.6000E+01
    -25.418  0.0000E+00  0.0000E+00  0.6000E+01  0.6000E+01
    -25.225  0.0000E+00  0.0000E+00  0.6000E+01  0.6000E+01
    -25.031  0.0000E+00  0.0000E+00  0.6000E+01  0.6000E+01
    -24.838  0.0000E+00  0.0000E+00  0.6000E+01  0.6000E+01
    -24.645  0.0000E+00  0.0000E+00  0.6000E+01  0.6000E+01
    -24.452  0.0000E+00  0.0000E+00  0.6000E+01  0.6000E+01
    -24.258  0.0000E+00  0.0000E+00  0.6000E+01  0.6000E+01
    -24.065  0.0000E+00  0.0000E+00  0.6000E+01  0.6000E+01
    -23.872  0.0000E+00  0.0000E+00  0.6000E+01  0.6000E+01
    -23.679  0.0000E+00  0.0000E+00  0.6000E+01  0.6000E+01
    -23.486  0.0000E+00  0.0000E+00  0.6000E+01  0.6000E+01
    -23.292  0.0000E+00  0.0000E+00  0.6000E+01  0.6000E+01
    -23.099  0.0000E+00  0.0000E+00  0.6000E+01  0.6000E+01
    -22.906  0.0000E+00  0.0000E+00  0.6000E+01  0.6000E+01
    -22.713  0.0000E+00  0.0000E+00  0.6000E+01  0.6000E+01
    -22.519  0.0000E+00  0.0000E+00  0.6000E+01  0.6000E+01
    -22.326  0.0000E+00  0.0000E+00  0.6000E+01  0.6000E+01
    -22.133  0.0000E+00  0.0000E+00  0.6000E+01  0.6000E+01
    -21.940  0.0000E+00  0.0000E+00  0.6000E+01  0.6000E+01
    -21.746  0.0000E+00  0.0000E+00  0.6000E+01  0.6000E+01
    -21.553  0.0000E+00  0.0000E+00  0.6000E+01  0.6000E+01
    -21.360  0.0000E+00  0.0000E+00  0.6000E+01  0.6000E+01
    -21.167  0.0000E+00  0.0000E+00  0.6000E+01  0.6000E+01
    -20.973  0.0000E+00  0.0000E+00  0.6000E+01  0.6000E+01
    -20.780  0.0000E+00  0.0000E+00  0.6000E+01  0.6000E+01
    -20.587  0.0000E+00  0.0000E+00  0.6000E+01  0.6000E+01
    -20.394  0.0000E+00  0.0000E+00  0.6000E+01  0.6000E+01
    -20.200  0.0000E+00  0.0000E+00  0.6000E+01  0.6000E+01
    -20.007  0.0000E+00  0.0000E+00  0.6000E+01  0.6000E+01
    -19.814  0.0000E+00  0.0000E+00  0.6000E+01  0.6000E+01
    -19.621  0.0000E+00  0.0000E+00  0.6000E+01  0.6000E+01
    -19.428  0.0000E+00  0.0000E+00  0.6000E+01  0.6000E+01
    -19.234  0.0000E+00  0.0000E+00  0.6000E+01  0.6000E+01
    -19.041  0.0000E+00  0.0000E+00  0.6000E+01  0.6000E+01
    -18.848  0.0000E+00  0.0000E+00  0.6000E+01  0.6000E+01
    -18.655  0.0000E+00  0.0000E+00  0.6000E+01  0.6000E+01
    -18.461  0.0000E+00  0.0000E+00  0.6000E+01  0.6000E+01
    -18.268  0.0000E+00  0.0000E+00  0.6000E+01  0.6000E+01
    -18.075  0.0000E+00  0.0000E+00  0.6000E+01  0.6000E+01
    -17.882  0.0000E+00  0.0000E+00  0.6000E+01  0.6000E+01
    -17.688  0.0000E+00  0.0000E+00  0.6000E+01  0.6000E+01
    -17.495  0.0000E+00  0.0000E+00  0.6000E+01  0.6000E+01
    -17.302  0.0000E+00  0.0000E+00  0.6000E+01  0.6000E+01
    -17.109  0.0000E+00  0.0000E+00  0.6000E+01  0.6000E+01
    -16.915  0.0000E+00  0.0000E+00  0.6000E+01  0.6000E+01
    -16.722  0.0000E+00  0.0000E+00  0.6000E+01  0.6000E+01
    -16.529  0.0000E+00  0.0000E+00  0.6000E+01  0.6000E+01
    -16.336  0.0000E+00  0.0000E+00  0.6000E+01  0.6000E+01
    -16.143  0.0000E+00  0.0000E+00  0.6000E+01  0.6000E+01
    -15.949  0.0000E+00  0.0000E+00  0.6000E+01  0.6000E+01
    -15.756  0.0000E+00  0.0000E+00  0.6000E+01  0.6000E+01
    -15.563  0.0000E+00  0.0000E+00  0.6000E+01  0.6000E+01
    -15.370  0.0000E+00  0.0000E+00  0.6000E+01  0.6000E+01
    -15.176  0.0000E+00  0.0000E+00  0.6000E+01  0.6000E+01
    -14.983  0.0000E+00  0.0000E+00  0.6000E+01  0.6000E+01
    -14.790  0.0000E+00  0.0000E+00  0.6000E+01  0.6000E+01
    -14.597  0.0000E+00  0.0000E+00  0.6000E+01  0.6000E+01
    -14.403  0.0000E+00  0.0000E+00  0.6000E+01  0.6000E+01
    -14.210  0.0000E+00  0.0000E+00  0.6000E+01  0.6000E+01
    -14.017  0.0000E+00  0.0000E+00  0.6000E+01  0.6000E+01
    -13.824  0.0000E+00  0.0000E+00  0.6000E+01  0.6000E+01
    -13.630  0.0000E+00  0.0000E+00  0.6000E+01  0.6000E+01
    -13.437  0.0000E+00  0.0000E+00  0.6000E+01  0.6000E+01
    -13.244  0.0000E+00  0.0000E+00  0.6000E+01  0.6000E+01
    -13.051  0.0000E+00  0.0000E+00  0.6000E+01  0.6000E+01
    -12.858  0.0000E+00  0.0000E+00  0.6000E+01  0.6000E+01
    -12.664  0.0000E+00  0.0000E+00  0.6000E+01  0.6000E+01
    -12.471  0.0000E+00  0.0000E+00  0.6000E+01  0.6000E+01
    -12.278  0.0000E+00  0.0000E+00  0.6000E+01  0.6000E+01
    -12.085  0.0000E+00  0.0000E+00  0.6000E+01  0.6000E+01
    -11.891  0.0000E+00  0.0000E+00  0.6000E+01  0.6000E+01
    -11.698  0.0000E+00  0.0000E+00  0.6000E+01  0.6000E+01
    -11.505  0.0000E+00  0.0000E+00  0.6000E+01  0.6000E+01
    -11.312  0.0000E+00  0.0000E+00  0.6000E+01  0.6000E+01
    -11.118  0.0000E+00  0.0000E+00  0.6000E+01  0.6000E+01
    -10.925  0.0000E+00  0.0000E+00  0.6000E+01  0.6000E+01
    -10.732  0.0000E+00  0.0000E+00  0.6000E+01  0.6000E+01
    -10.539  0.0000E+00  0.0000E+00  0.6000E+01  0.6000E+01
    -10.345  0.0000E+00  0.0000E+00  0.6000E+01  0.6000E+01
    -10.152  0.0000E+00  0.0000E+00  0.6000E+01  0.6000E+01
     -9.959  0.0000E+00  0.0000E+00  0.6000E+01  0.6000E+01
     -9.766  0.0000E+00  0.0000E+00  0.6000E+01  0.6000E+01
     -9.572  0.0000E+00  0.0000E+00  0.6000E+01  0.6000E+01
     -9.379  0.0000E+00  0.0000E+00  0.6000E+01  0.6000E+01
     -9.186  0.0000E+00  0.0000E+00  0.6000E+01  0.6000E+01
     -8.993  0.0000E+00  0.0000E+00  0.6000E+01  0.6000E+01
     -8.800  0.0000E+00  0.0000E+00  0.6000E+01  0.6000E+01
     -8.606  0.0000E+00  0.0000E+00  0.6000E+01  0.6000E+01
     -8.413  0.0000E+00  0.0000E+00  0.6000E+01  0.6000E+01
     -8.220  0.0000E+00  0.0000E+00  0.6000E+01  0.6000E+01
     -8.027  0.0000E+00  0.0000E+00  0.6000E+01  0.6000E+01
     -7.833  0.0000E+00  0.0000E+00  0.6000E+01  0.6000E+01
     -7.640  0.0000E+00  0.0000E+00  0.6000E+01  0.6000E+01
     -7.447  0.0000E+00  0.0000E+00  0.6000E+01  0.6000E+01
     -7.254  0.0000E+00  0.0000E+00  0.6000E+01  0.6000E+01
     -7.060  0.0000E+00  0.0000E+00  0.6000E+01  0.6000E+01
     -6.867  0.0000E+00  0.0000E+00  0.6000E+01  0.6000E+01
     -6.674  0.0000E+00  0.0000E+00  0.6000E+01  0.6000E+01
     -6.481  0.0000E+00  0.0000E+00  0.6000E+01  0.6000E+01
     -6.287  0.0000E+00  0.0000E+00  0.6000E+01  0.6000E+01
     -6.094  0.4672E-04  0.4672E-04  0.6000E+01  0.6000E+01
     -5.901  0.5747E-01  0.5747E-01  0.6011E+01  0.6011E+01
     -5.708  0.1779E+00  0.1779E+00  0.6045E+01  0.6045E+01
     -5.515  0.8099E+00  0.8143E+00  0.6202E+01  0.6203E+01
     -5.321  0.1526E+00  0.1482E+00  0.6231E+01  0.6231E+01
     -5.128  0.1045E+01  0.1045E+01  0.6433E+01  0.6433E+01
     -4.935  0.1247E+01  0.1326E+01  0.6674E+01  0.6690E+01
     -4.742  0.2154E+01  0.2075E+01  0.7091E+01  0.7091E+01
     -4.548  0.4020E+01  0.4001E+01  0.7867E+01  0.7864E+01
     -4.355  0.6862E+00  0.7061E+00  0.8000E+01  0.8000E+01
     -4.162  0.1440E-06  0.1440E-06  0.8000E+01  0.8000E+01
     -3.969  0.0000E+00  0.0000E+00  0.8000E+01  0.8000E+01
     -3.775  0.0000E+00  0.0000E+00  0.8000E+01  0.8000E+01
     -3.582  0.0000E+00  0.0000E+00  0.8000E+01  0.8000E+01
     -3.389  0.0000E+00  0.0000E+00  0.8000E+01  0.8000E+01
     -3.196  0.0000E+00  0.0000E+00  0.8000E+01  0.8000E+01
     -3.002  0.0000E+00  0.0000E+00  0.8000E+01  0.8000E+01
     -2.809  0.0000E+00  0.0000E+00  0.8000E+01  0.8000E+01
     -2.616  0.0000E+00  0.0000E+00  0.8000E+01  0.8000E+01
     -2.423  0.0000E+00  0.0000E+00  0.8000E+01  0.8000E+01
     -2.230  0.0000E+00  0.0000E+00  0.8000E+01  0.8000E+01
     -2.036  0.0000E+00  0.0000E+00  0.8000E+01  0.8000E+01
     -1.843  0.0000E+00  0.0000E+00  0.8000E+01  0.8000E+01
     -1.650  0.0000E+00  0.0000E+00  0.8000E+01  0.8000E+01
     -1.457  0.0000E+00  0.0000E+00  0.8000E+01  0.8000E+01
     -1.263  0.0000E+00  0.0000E+00  0.8000E+01  0.8000E+01
     -1.070  0.0000E+00  0.0000E+00  0.8000E+01  0.8000E+01
     -0.877  0.0000E+00  0.0000E+00  0.8000E+01  0.8000E+01
     -0.684  0.0000E+00  0.0000E+00  0.8000E+01  0.8000E+01
     -0.490  0.0000E+00  0.0000E+00  0.8000E+01  0.8000E+01
     -0.297  0.0000E+00  0.0000E+00  0.8000E+01  0.8000E+01
     -0.104  0.0000E+00  0.0000E+00  0.8000E+01  0.8000E+01
      0.089  0.0000E+00  0.0000E+00  0.8000E+01  0.8000E+01
      0.283  0.0000E+00  0.0000E+00  0.8000E+01  0.8000E+01
      0.476  0.3295E-06  0.3295E-06  0.8000E+01  0.8000E+01
      0.669  0.4474E-01  0.4474E-01  0.8009E+01  0.8009E+01
      0.862  0.3962E-01  0.3977E-01  0.8016E+01  0.8016E+01
      1.056  0.1428E+01  0.1824E+01  0.8292E+01  0.8369E+01
      1.249  0.1459E+01  0.1062E+01  0.8574E+01  0.8574E+01
      1.442  0.1041E+01  0.1120E+01  0.8775E+01  0.8791E+01
      1.635  0.1568E+01  0.1864E+01  0.9078E+01  0.9151E+01
      1.828  0.2103E+01  0.1727E+01  0.9485E+01  0.9485E+01
      2.022  0.5220E+00  0.5220E+00  0.9586E+01  0.9586E+01
      2.215  0.1098E+01  0.1098E+01  0.9798E+01  0.9798E+01
      2.408  0.1951E+01  0.1857E+01  0.1017E+02  0.1016E+02
      2.601  0.2392E+01  0.2645E+01  0.1064E+02  0.1067E+02
      2.795  0.6706E+01  0.7121E+01  0.1193E+02  0.1204E+02
      2.988  0.3688E+01  0.2543E+01  0.1265E+02  0.1253E+02
      3.181  0.1333E+01  0.1320E+01  0.1290E+02  0.1279E+02
      3.374  0.5852E+01  0.5950E+01  0.1403E+02  0.1394E+02
      3.568  0.3677E+01  0.4085E+01  0.1474E+02  0.1473E+02
      3.761  0.3814E+01  0.2974E+01  0.1548E+02  0.1530E+02
      3.954  0.2239E+01  0.2331E+01  0.1591E+02  0.1575E+02
      4.147  0.2014E+01  0.2578E+01  0.1630E+02  0.1625E+02
      4.341  0.1179E+01  0.8131E+00  0.1653E+02  0.1641E+02
      4.534  0.1569E+01  0.9567E+00  0.1683E+02  0.1659E+02
      4.727  0.7858E+00  0.1019E+01  0.1699E+02  0.1679E+02
      4.920  0.2090E+01  0.3717E+01  0.1739E+02  0.1751E+02
      5.113  0.9726E+00  0.1238E+01  0.1758E+02  0.1775E+02
      5.307  0.1374E+01  0.2732E+01  0.1784E+02  0.1828E+02
      5.500  0.1734E+01  0.1618E+01  0.1818E+02  0.1859E+02
      5.693  0.1471E+01  0.1161E+01  0.1846E+02  0.1881E+02
      5.886  0.1875E+01  0.3462E+00  0.1883E+02  0.1888E+02
      6.080  0.7287E+00  0.4418E+00  0.1897E+02  0.1897E+02
      6.273  0.7244E-01  0.7244E-01  0.1898E+02  0.1898E+02
      6.466  0.9871E-01  0.9871E-01  0.1900E+02  0.1900E+02
      6.659  0.5905E+00  0.5800E+00  0.1911E+02  0.1911E+02
      6.853  0.8845E+00  0.1337E+01  0.1928E+02  0.1937E+02
      7.046  0.2539E+01  0.2098E+01  0.1977E+02  0.1977E+02
      7.239  0.1957E+01  0.2224E+01  0.2015E+02  0.2020E+02
      7.432  0.6252E+01  0.5206E+01  0.2136E+02  0.2121E+02
      7.626  0.4446E+01  0.4934E+01  0.2222E+02  0.2216E+02
      7.819  0.3769E+01  0.3068E+01  0.2295E+02  0.2276E+02
      8.012  0.2707E+01  0.2420E+01  0.2347E+02  0.2322E+02
      8.205  0.1480E+01  0.2180E+01  0.2376E+02  0.2365E+02
      8.398  0.7475E+00  0.1325E+01  0.2390E+02  0.2390E+02
      8.592  0.5078E+00  0.5078E+00  0.2400E+02  0.2400E+02
      8.785  0.7843E-04  0.7843E-04  0.2400E+02  0.2400E+02
      8.978  0.0000E+00  0.0000E+00  0.2400E+02  0.2400E+02
      9.171  0.0000E+00  0.0000E+00  0.2400E+02  0.2400E+02
      9.365  0.0000E+00  0.0000E+00  0.2400E+02  0.2400E+02
      9.558  0.0000E+00  0.0000E+00  0.2400E+02  0.2400E+02
      9.751  0.0000E+00  0.0000E+00  0.2400E+02  0.2400E+02
      9.944  0.0000E+00  0.0000E+00  0.2400E+02  0.2400E+02
     10.138  0.0000E+00  0.0000E+00  0.2400E+02  0.2400E+02
     10.331  0.0000E+00  0.0000E+00  0.2400E+02  0.2400E+02
     10.524  0.0000E+00  0.0000E+00  0.2400E+02  0.2400E+02
     10.717  0.0000E+00  0.0000E+00  0.2400E+02  0.2400E+02
     10.911  0.0000E+00  0.0000E+00  0.2400E+02  0.2400E+02
     11.104  0.0000E+00  0.0000E+00  0.2400E+02  0.2400E+02
