    4    4    1    2
  0.2546802E+02  0.4173490E-09  0.4173490E-09  0.6753451E-09  0.5000000E-15
  1.000000000000000E-004
  CAR 
 unknown system                          
     38     15     24
 
  0.0000000E+00  0.0000000E+00  0.0000000E+00  0.1000000E-01
      1        -44.231201      -44.231201   1.000000   1.000000
      2        -44.231199      -44.231199   1.000000   1.000000
      3        -44.228272      -44.228272   1.000000   1.000000
      4        -39.850998      -39.850998   1.000000   1.000000
      5        -39.843962      -39.843962   1.000000   1.000000
      6        -39.843959      -39.843959   1.000000   1.000000
      7         -5.983915       -5.983915   1.000000   1.000000
      8         -4.764879       -4.764879   1.000000   1.000000
      9          0.630109        0.630109   1.000000   1.000000
     10          2.643031        2.643031   1.000000   1.000000
     11          2.643031        2.643031   1.000000   1.000000
     12          3.277625        3.277625   1.000000   1.000000
     13          3.285213        3.285213   1.000000   1.000000
     14          3.285213        3.285213   1.000000   1.000000
     15          5.141356        5.141356   1.000000   1.000000
     16          5.141356        5.141356   1.000000   1.000000
     17          5.587373        5.587373   1.000000   1.000000
     18          5.587374        5.587374   1.000000   1.000000
     19          5.784602        5.784602   1.000000   1.000000
     20          7.079579        7.079579   0.000000   0.000000
     21          7.079580        7.079580   0.000000   0.000000
     22          7.226793        7.226793   0.000000   0.000000
     23          8.238818        8.238818   0.000000   0.000000
     24          8.389865        8.389865   0.000000   0.000000
 
  0.2000000E+00  0.7977035E-17  0.0000000E+00  0.6000000E-01
      1        -44.231540      -44.231540   1.000000   1.000000
      2        -44.231291      -44.231291   1.000000   1.000000
      3        -44.228222      -44.228222   1.000000   1.000000
      4        -39.850917      -39.850917   1.000000   1.000000
      5        -39.844466      -39.844466   1.000000   1.000000
      6        -39.844092      -39.844092   1.000000   1.000000
      7         -5.684830       -5.684830   1.000000   1.000000
      8         -4.654348       -4.654348   1.000000   1.000000
      9          1.061895        1.061895   1.000000   1.000000
     10          2.444413        2.444413   1.000000   1.000000
     11          2.689892        2.689892   1.000000   1.000000
     12          2.806338        2.806338   1.000000   1.000000
     13          3.231092        3.231092   1.000000   1.000000
     14          3.253464        3.253464   1.000000   1.000000
     15          3.844184        3.844184   1.000000   1.000000
     16          4.253792        4.253792   1.000000   1.000000
     17          4.722935        4.722935   1.000000   1.000000
     18          5.448968        5.448968   1.000000   1.000000
     19          5.967712        5.967712   1.000000   1.000000
     20          6.941971        6.941971   0.000000   0.000000
     21          7.312995        7.312995   0.000000   0.000000
     22          7.387678        7.387678   0.000000   0.000000
     23          7.879384        7.879384   0.000000   0.000000
     24          8.273612        8.273612   0.000000   0.000000
 
  0.4000000E+00  0.5300274E-16  0.0000000E+00  0.6000000E-01
      1        -44.232080      -44.232080   1.000000   1.000000
      2        -44.231442      -44.231442   1.000000   1.000000
      3        -44.228146      -44.228146   1.000000   1.000000
      4        -39.850792      -39.850792   1.000000   1.000000
      5        -39.845262      -39.845262   1.000000   1.000000
      6        -39.844309      -39.844309   1.000000   1.000000
      7         -5.005322       -5.005322   1.000000   1.000000
      8         -4.544895       -4.544895   1.000000   1.000000
      9          1.053700        1.053700   1.000000   1.000000
     10          2.119629        2.119629   1.000000   1.000000
     11          2.283590        2.283590   1.000000   1.000000
     12          2.677260        2.677260   1.000000   1.000000
     13          2.975116        2.975116   1.000000   1.000000
     14          3.268351        3.268351   1.000000   1.000000
     15          3.359237        3.359237   1.000000   1.000000
     16          3.695748        3.695748   1.000000   1.000000
     17          4.019741        4.019741   1.000000   1.000000
     18          5.012034        5.012034   1.000000   1.000000
     19          5.332462        5.332462   1.000000   1.000000
     20          6.743912        6.743912   0.000000   0.000000
     21          7.427203        7.427203   0.000000   0.000000
     22          7.492289        7.492289   0.000000   0.000000
     23          7.739867        7.739867   0.000000   0.000000
     24          8.468758        8.468758   0.000000   0.000000
 
  0.2000000E+00  0.2000000E+00  0.0000000E+00  0.6000000E-01
      1        -44.231895      -44.231895   1.000000   1.000000
      2        -44.231483      -44.231483   1.000000   1.000000
      3        -44.228141      -44.228141   1.000000   1.000000
      4        -39.850792      -39.850792   1.000000   1.000000
      5        -39.844986      -39.844986   1.000000   1.000000
      6        -39.844376      -39.844376   1.000000   1.000000
      7         -5.187783       -5.187783   1.000000   1.000000
      8         -4.529289       -4.529289   1.000000   1.000000
      9          1.693283        1.693283   1.000000   1.000000
     10          1.833929        1.833929   1.000000   1.000000
     11          2.235840        2.235840   1.000000   1.000000
     12          2.582856        2.582856   1.000000   1.000000
     13          2.842463        2.842463   1.000000   1.000000
     14          3.271619        3.271619   1.000000   1.000000
     15          3.395497        3.395497   1.000000   1.000000
     16          3.643322        3.643322   1.000000   1.000000
     17          4.488487        4.488487   1.000000   1.000000
     18          4.725151        4.725151   1.000000   1.000000
     19          5.592177        5.592177   1.000000   1.000000
     20          7.096981        7.096981   0.000000   0.000000
     21          7.439554        7.439554   0.000000   0.000000
     22          7.511542        7.511542   0.000000   0.000000
     23          7.613667        7.613667   0.000000   0.000000
     24          8.097229        8.097229   0.000000   0.000000
 
  0.4000000E+00  0.2000000E+00  0.0000000E+00  0.6000000E-01
      1        -44.232029      -44.232029   1.000000   1.000000
      2        -44.231648      -44.231648   1.000000   1.000000
      3        -44.228090      -44.228090   1.000000   1.000000
      4        -39.850713      -39.850713   1.000000   1.000000
      5        -39.845195      -39.845195   1.000000   1.000000
      6        -39.844621      -39.844621   1.000000   1.000000
      7         -4.701577       -4.701577   1.000000   1.000000
      8         -4.557305       -4.557305   1.000000   1.000000
      9          0.906621        0.906621   1.000000   1.000000
     10          2.104853        2.104853   1.000000   1.000000
     11          2.403366        2.403366   1.000000   1.000000
     12          2.632856        2.632856   1.000000   1.000000
     13          2.699235        2.699235   1.000000   1.000000
     14          2.977817        2.977817   1.000000   1.000000
     15          3.471839        3.471839   1.000000   1.000000
     16          3.700251        3.700251   1.000000   1.000000
     17          3.957107        3.957107   1.000000   1.000000
     18          4.737989        4.737989   1.000000   1.000000
     19          4.753237        4.753237   1.000000   1.000000
     20          6.960214        6.960214   0.000000   0.000000
     21          7.392794        7.392794   0.000000   0.000000
     22          7.448316        7.448316   0.000000   0.000000
     23          7.697934        7.697934   0.000000   0.000000
     24          7.775840        7.775840   0.000000   0.000000
 
  0.0000000E+00  0.0000000E+00  0.2500000E+00  0.2000000E-01
      1        -44.231196      -44.231196   1.000000   1.000000
      2        -44.231195      -44.231195   1.000000   1.000000
      3        -44.228279      -44.228279   1.000000   1.000000
      4        -39.851017      -39.851017   1.000000   1.000000
      5        -39.843956      -39.843956   1.000000   1.000000
      6        -39.843952      -39.843952   1.000000   1.000000
      7         -5.846164       -5.846164   1.000000   1.000000
      8         -5.001530       -5.001530   1.000000   1.000000
      9          1.155236        1.155236   1.000000   1.000000
     10          2.684091        2.684091   1.000000   1.000000
     11          2.684091        2.684091   1.000000   1.000000
     12          3.244787        3.244787   1.000000   1.000000
     13          3.288806        3.288806   1.000000   1.000000
     14          3.288806        3.288806   1.000000   1.000000
     15          4.659565        4.659565   1.000000   1.000000
     16          4.740392        4.740392   1.000000   1.000000
     17          4.740393        4.740393   1.000000   1.000000
     18          6.065911        6.065911   1.000000   1.000000
     19          6.065911        6.065911   1.000000   1.000000
     20          7.056660        7.056660   0.000000   0.000000
     21          7.056660        7.056660   0.000000   0.000000
     22          7.080086        7.080086   0.000000   0.000000
     23          8.294700        8.294700   0.000000   0.000000
     24          8.294701        8.294701   0.000000   0.000000
 
  0.2000000E+00  0.7977035E-17  0.2500000E+00  0.1200000E+00
      1        -44.231548      -44.231550   1.000000   1.000000
      2        -44.231289      -44.231288   1.000000   1.000000
      3        -44.228214      -44.228214   1.000000   1.000000
      4        -39.850919      -39.850919   1.000000   1.000000
      5        -39.844472      -39.844478   1.000000   1.000000
      6        -39.844091      -39.844085   1.000000   1.000000
      7         -5.561723       -5.563317   1.000000   1.000000
      8         -4.844775       -4.841912   1.000000   1.000000
      9          1.405086        1.369840   1.000000   1.000000
     10          2.442547        2.486601   1.000000   1.000000
     11          2.742320        2.693623   1.000000   1.000000
     12          2.832369        2.699796   1.000000   1.000000
     13          3.220085        3.231029   1.000000   1.000000
     14          3.305930        3.265992   1.000000   1.000000
     15          3.622710        3.759109   1.000000   1.000000
     16          4.159872        4.758392   1.000000   1.000000
     17          4.418965        4.825233   1.000000   1.000000
     18          5.787329        5.120315   1.000000   1.000000
     19          5.882809        5.263916   1.000000   1.000000
     20          6.941273        6.832246   0.000000   0.000000
     21          7.322445        7.244337   0.000000   0.000000
     22          7.394974        7.382642   0.000000   0.000000
     23          7.633817        7.827268   0.000000   0.000000
     24          7.944467        8.257402   0.000000   0.000000
 
  0.4000000E+00  0.5300274E-16  0.2500000E+00  0.1200000E+00
      1        -44.232070      -44.232070   1.000000   1.000000
      2        -44.231438      -44.231438   1.000000   1.000000
      3        -44.228126      -44.228126   1.000000   1.000000
      4        -39.850781      -39.850776   1.000000   1.000000
      5        -39.845257      -39.845248   1.000000   1.000000
      6        -39.844305      -39.844304   1.000000   1.000000
      7         -4.933930       -4.945414   1.000000   1.000000
      8         -4.621140       -4.605910   1.000000   1.000000
      9          1.070388        0.985767   1.000000   1.000000
     10          1.668492        1.608082   1.000000   1.000000
     11          2.670541        2.628076   1.000000   1.000000
     12          2.690198        2.658289   1.000000   1.000000
     13          2.938097        3.225134   1.000000   1.000000
     14          3.323268        3.369556   1.000000   1.000000
     15          3.358006        3.399399   1.000000   1.000000
     16          3.620141        4.009376   1.000000   1.000000
     17          3.963812        4.093035   1.000000   1.000000
     18          5.493048        4.758545   1.000000   1.000000
     19          5.744831        5.285748   1.000000   1.000000
     20          6.662513        6.664019   0.000002   0.000001
     21          7.381784        7.449005   0.000000   0.000000
     22          7.388428        7.464816   0.000000   0.000000
     23          7.680790        8.047668   0.000000   0.000000
     24          8.035546        8.093280   0.000000   0.000000
 
  0.2000000E+00  0.2000000E+00  0.2500000E+00  0.1200000E+00
      1        -44.231886      -44.231886   1.000000   1.000000
      2        -44.231491      -44.231491   1.000000   1.000000
      3        -44.228142      -44.228142   1.000000   1.000000
      4        -39.850802      -39.850802   1.000000   1.000000
      5        -39.844977      -39.844977   1.000000   1.000000
      6        -39.844386      -39.844386   1.000000   1.000000
      7         -5.100803       -5.100803   1.000000   1.000000
      8         -4.636430       -4.636430   1.000000   1.000000
      9          1.602229        1.602229   1.000000   1.000000
     10          1.661085        1.661085   1.000000   1.000000
     11          2.579163        2.579163   1.000000   1.000000
     12          2.635777        2.635776   1.000000   1.000000
     13          2.844185        2.844186   1.000000   1.000000
     14          3.331314        3.331314   1.000000   1.000000
     15          3.430462        3.430462   1.000000   1.000000
     16          3.773214        3.773214   1.000000   1.000000
     17          4.170684        4.170684   1.000000   1.000000
     18          4.800073        4.800073   1.000000   1.000000
     19          5.514885        5.514885   1.000000   1.000000
     20          7.112568        7.112568   0.000000   0.000000
     21          7.308869        7.308869   0.000000   0.000000
     22          7.462569        7.462569   0.000000   0.000000
     23          7.603593        7.603593   0.000000   0.000000
     24          8.073997        8.073997   0.000000   0.000000
 
  0.4000000E+00  0.2000000E+00  0.2500000E+00  0.1200000E+00
      1        -44.232060      -44.232060   1.000000   1.000000
      2        -44.231658      -44.231658   1.000000   1.000000
      3        -44.228108      -44.228108   1.000000   1.000000
      4        -39.850745      -39.850745   1.000000   1.000000
      5        -39.845234      -39.845234   1.000000   1.000000
      6        -39.844633      -39.844633   1.000000   1.000000
      7         -4.676839       -4.676839   1.000000   1.000000
      8         -4.573915       -4.573915   1.000000   1.000000
      9          0.994304        0.994304   1.000000   1.000000
     10          1.782465        1.782465   1.000000   1.000000
     11          2.317294        2.317293   1.000000   1.000000
     12          2.581526        2.581526   1.000000   1.000000
     13          2.780967        2.780967   1.000000   1.000000
     14          3.037222        3.037222   1.000000   1.000000
     15          3.488051        3.488051   1.000000   1.000000
     16          3.620298        3.620297   1.000000   1.000000
     17          3.886609        3.886610   1.000000   1.000000
     18          4.864666        4.864665   1.000000   1.000000
     19          5.197847        5.197847   1.000000   1.000000
     20          6.959000        6.959000   0.000000   0.000000
     21          7.401001        7.401000   0.000000   0.000000
     22          7.474898        7.474898   0.000000   0.000000
     23          7.690687        7.690687   0.000000   0.000000
     24          7.909731        7.909731   0.000000   0.000000
 
  0.0000000E+00  0.0000000E+00  0.5000000E+00  0.1000000E-01
      1        -44.231208      -44.231208   1.000000   1.000000
      2        -44.231206      -44.231206   1.000000   1.000000
      3        -44.228256      -44.228256   1.000000   1.000000
      4        -39.851004      -39.851004   1.000000   1.000000
      5        -39.843968      -39.843968   1.000000   1.000000
      6        -39.843965      -39.843965   1.000000   1.000000
      7         -5.492232       -5.492232   1.000000   1.000000
      8         -5.446420       -5.446420   1.000000   1.000000
      9          2.147095        2.147095   1.000000   1.000000
     10          2.729395        2.729395   1.000000   1.000000
     11          2.729396        2.729396   1.000000   1.000000
     12          2.773292        2.773292   1.000000   1.000000
     13          3.292796        3.292796   1.000000   1.000000
     14          3.292797        3.292797   1.000000   1.000000
     15          3.787204        3.787204   1.000000   1.000000
     16          4.508204        4.508204   1.000000   1.000000
     17          4.508204        4.508204   1.000000   1.000000
     18          6.406712        6.406712   0.994999   0.994999
     19          6.406713        6.406713   0.994999   0.994999
     20          6.946925        6.946925   0.000000   0.000000
     21          7.013008        7.013008   0.000000   0.000000
     22          7.013008        7.013008   0.000000   0.000000
     23          8.186927        8.186927   0.000000   0.000000
     24          8.186928        8.186928   0.000000   0.000000
 
  0.2000000E+00  0.7977035E-17  0.5000000E+00  0.6000000E-01
      1        -44.231554      -44.231554   1.000000   1.000000
      2        -44.231295      -44.231295   1.000000   1.000000
      3        -44.228203      -44.228203   1.000000   1.000000
      4        -39.850918      -39.850918   1.000000   1.000000
      5        -39.844481      -39.844481   1.000000   1.000000
      6        -39.844096      -39.844096   1.000000   1.000000
      7         -5.250715       -5.250715   1.000000   1.000000
      8         -5.218290       -5.218290   1.000000   1.000000
      9          1.974195        1.974195   1.000000   1.000000
     10          2.116352        2.116352   1.000000   1.000000
     11          2.753548        2.753548   1.000000   1.000000
     12          2.824912        2.824912   1.000000   1.000000
     13          3.219082        3.219082   1.000000   1.000000
     14          3.323851        3.323851   1.000000   1.000000
     15          3.663579        3.663579   1.000000   1.000000
     16          4.449489        4.449489   1.000000   1.000000
     17          4.481932        4.481932   1.000000   1.000000
     18          4.968603        4.968603   1.000000   1.000000
     19          5.747060        5.747060   1.000000   1.000000
     20          6.832693        6.832693   0.000000   0.000000
     21          7.269696        7.269696   0.000000   0.000000
     22          7.444685        7.444685   0.000000   0.000000
     23          7.621267        7.621267   0.000000   0.000000
     24          7.902017        7.902017   0.000000   0.000000
 
  0.4000000E+00  0.5300274E-16  0.5000000E+00  0.6000000E-01
      1        -44.232073      -44.232073   1.000000   1.000000
      2        -44.231428      -44.231428   1.000000   1.000000
      3        -44.228123      -44.228123   1.000000   1.000000
      4        -39.850786      -39.850786   1.000000   1.000000
      5        -39.845257      -39.845257   1.000000   1.000000
      6        -39.844291      -39.844291   1.000000   1.000000
      7         -4.787524       -4.787524   1.000000   1.000000
      8         -4.768786       -4.768786   1.000000   1.000000
      9          1.090183        1.090183   1.000000   1.000000
     10          1.295597        1.295597   1.000000   1.000000
     11          2.670404        2.670404   1.000000   1.000000
     12          2.684714        2.684714   1.000000   1.000000
     13          3.253761        3.253761   1.000000   1.000000
     14          3.369035        3.369035   1.000000   1.000000
     15          3.446357        3.446357   1.000000   1.000000
     16          3.953711        3.953711   1.000000   1.000000
     17          4.029767        4.029767   1.000000   1.000000
     18          5.421991        5.421991   1.000000   1.000000
     19          5.458549        5.458549   1.000000   1.000000
     20          6.601572        6.601572   0.001664   0.001664
     21          7.394070        7.394070   0.000000   0.000000
     22          7.425449        7.425449   0.000000   0.000000
     23          7.745138        7.745138   0.000000   0.000000
     24          7.799723        7.799723   0.000000   0.000000
 
  0.2000000E+00  0.2000000E+00  0.5000000E+00  0.6000000E-01
      1        -44.231897      -44.231897   1.000000   1.000000
      2        -44.231492      -44.231492   1.000000   1.000000
      3        -44.228147      -44.228147   1.000000   1.000000
      4        -39.850823      -39.850823   1.000000   1.000000
      5        -39.844994      -39.844994   1.000000   1.000000
      6        -39.844386      -39.844386   1.000000   1.000000
      7         -4.883454       -4.883454   1.000000   1.000000
      8         -4.873804       -4.873804   1.000000   1.000000
      9          1.554493        1.554493   1.000000   1.000000
     10          1.567553        1.567553   1.000000   1.000000
     11          2.717599        2.717599   1.000000   1.000000
     12          2.779337        2.779337   1.000000   1.000000
     13          2.782710        2.782710   1.000000   1.000000
     14          3.426990        3.426990   1.000000   1.000000
     15          3.446723        3.446723   1.000000   1.000000
     16          3.866305        3.866305   1.000000   1.000000
     17          4.063100        4.063100   1.000000   1.000000
     18          4.988326        4.988326   1.000000   1.000000
     19          5.220155        5.220155   1.000000   1.000000
     20          7.132250        7.132250   0.000000   0.000000
     21          7.136421        7.136421   0.000000   0.000000
     22          7.410585        7.410585   0.000000   0.000000
     23          7.723012        7.723012   0.000000   0.000000
     24          7.850504        7.850504   0.000000   0.000000
 
  0.4000000E+00  0.2000000E+00  0.5000000E+00  0.6000000E-01
      1        -44.232064      -44.232064   1.000000   1.000000
      2        -44.231656      -44.231656   1.000000   1.000000
      3        -44.228110      -44.228110   1.000000   1.000000
      4        -39.850760      -39.850760   1.000000   1.000000
      5        -39.845239      -39.845239   1.000000   1.000000
      6        -39.844631      -39.844631   1.000000   1.000000
      7         -4.627978       -4.627978   1.000000   1.000000
      8         -4.614653       -4.614653   1.000000   1.000000
      9          1.177722        1.177722   1.000000   1.000000
     10          1.421597        1.421597   1.000000   1.000000
     11          2.374900        2.374900   1.000000   1.000000
     12          2.386969        2.386969   1.000000   1.000000
     13          2.865721        2.865721   1.000000   1.000000
     14          3.093400        3.093400   1.000000   1.000000
     15          3.489467        3.489467   1.000000   1.000000
     16          3.631081        3.631081   1.000000   1.000000
     17          3.663684        3.663685   1.000000   1.000000
     18          5.173286        5.173286   1.000000   1.000000
     19          5.531710        5.531710   1.000000   1.000000
     20          6.968424        6.968424   0.000000   0.000000
     21          7.407821        7.407821   0.000000   0.000000
     22          7.445521        7.445521   0.000000   0.000000
     23          7.928605        7.928605   0.000000   0.000000
     24          8.406590        8.406590   0.000000   0.000000
