       N       E                     dE             d eps       ncg     rms          rms(c)
DAV:   1     0.231401283214E+03    0.23140E+03   -0.20937E+04  1728   0.150E+03
DAV:   2    -0.101818257674E+02   -0.24158E+03   -0.24028E+03  1452   0.347E+02
DAV:   3    -0.230389035745E+02   -0.12857E+02   -0.12802E+02  1908   0.826E+01
DAV:   4    -0.232874895238E+02   -0.24859E+00   -0.24655E+00  1680   0.114E+01
DAV:   5    -0.232928183793E+02   -0.53289E-02   -0.53264E-02  2052   0.159E+00    0.176E+01
DAV:   6    -0.272569128999E+02   -0.39641E+01   -0.97025E+01  1692   0.606E+01    0.246E+01
DAV:   7    -0.234073241028E+02    0.38496E+01   -0.55806E+01  1860   0.486E+01    0.138E+01
DAV:   8    -0.237661264959E+02   -0.35880E+00   -0.12100E+00  1584   0.555E+00    0.124E+01
DAV:   9    -0.243021279037E+02   -0.53600E+00   -0.80943E-01  1956   0.606E+00    0.814E+00
DAV:  10    -0.246783609032E+02   -0.37623E+00   -0.18983E+00  1884   0.112E+01    0.405E+00
DAV:  11    -0.247241589198E+02   -0.45798E-01   -0.35213E-01  1896   0.473E+00    0.263E+00
DAV:  12    -0.247510285738E+02   -0.26870E-01   -0.35604E-02  1620   0.204E+00    0.114E+00
DAV:  13    -0.247525692303E+02   -0.15407E-02   -0.10965E-02  1776   0.815E-01    0.846E-01
DAV:  14    -0.247515987148E+02    0.97052E-03   -0.22041E-03  1992   0.396E-01    0.675E-01
DAV:  15    -0.247515108622E+02    0.87853E-04   -0.53075E-04  1896   0.109E-01    0.556E-01
DAV:  16    -0.247512444301E+02    0.26643E-03   -0.81243E-04  1944   0.132E-01    0.329E-01
DAV:  17    -0.247511203550E+02    0.12408E-03   -0.20120E-04  2016   0.105E-01    0.215E-01
DAV:  18    -0.247511339130E+02   -0.13558E-04   -0.12759E-04  1896   0.597E-02    0.111E-01
DAV:  19    -0.247511135816E+02    0.20331E-04   -0.11674E-04  1968   0.592E-02    0.256E-02
DAV:  20    -0.247511137879E+02   -0.20634E-06   -0.11995E-05  1992   0.219E-02    0.497E-03
DAV:  21    -0.247511140601E+02   -0.27221E-06   -0.44061E-07   732   0.536E-03
   1 F= -.24751114E+02 E0= -.24751092E+02  d E =-.432694E-04  mag=     0.0000
