<?xml version="1.0" encoding="ISO-8859-1"?>
<modeling>
 <generator>
  <i name="program" type="string">vasp </i>
  <i name="version" type="string">6.4.2  </i>
  <i name="subversion" type="string">20Jul23 (build Dec 23 2024 14:39:31) complex                          parallel </i>
  <i name="platform" type="string">LinuxIFC </i>
  <i name="date" type="string">2025 03 09 </i>
  <i name="time" type="string">16:59:58 </i>
 </generator>
 <incar>
  <i type="int" name="ISTART">     1</i>
  <i type="string" name="PREC">Accurate      (Accurate strictly avoids any aliasing or wrap around errors)</i>
  <i type="logical" name="ADDGRID"> T  </i>
  <i type="int" name="ISPIN">     2</i>
  <i type="int" name="IBRION">     2</i>
  <i name="EDIFF">      0.00000100</i>
  <i name="EDIFFG">     -0.01000000</i>
  <i type="int" name="NSW">     0</i>
  <i type="int" name="ISIF">     2</i>
  <i name="ENCUT">    500.00000000</i>
  <v name="MAGMOM">      1.00000000     -1.00000000      0.00000000      0.00000000</v>
  <i type="int" name="ISMEAR">     0</i>
  <i name="SIGMA">      0.05000000</i>
  <i type="logical" name="LWAVE"> T  </i>
  <i type="logical" name="LCHARG"> T  </i>
  <i type="logical" name="LASPH"> T  </i>
 </incar>
 <primitive_cell>
  <structure name="primitive_cell" >
   <crystal>
    <varray name="basis" >
     <v>       4.17349005       0.00000000       0.00000000 </v>
     <v>      -2.08674502       3.61434840       0.00000000 </v>
     <v>       0.00000000       0.00000000       6.75345135 </v>
    </varray>
    <i name="volume">    101.87207953 </i>
    <varray name="rec_basis" >
     <v>       0.23960762       0.13833752       0.00000000 </v>
     <v>       0.00000000       0.27667504       0.00000000 </v>
     <v>       0.00000000       0.00000000       0.14807244 </v>
    </varray>
   </crystal>
   <varray name="positions" >
    <v>       0.00000000       0.00000000       0.00000000 </v>
    <v>       0.00000000       0.00000000       0.50000000 </v>
    <v>       0.33333334       0.66666669       0.25000000 </v>
    <v>       0.66666666       0.33333331       0.75000000 </v>
   </varray>
  </structure>
  <varray name="primitive_index" >
   <v type="int" >        1 </v>
   <v type="int" >        2 </v>
   <v type="int" >        3 </v>
   <v type="int" >        4 </v>
  </varray>
 </primitive_cell>
 <kpoints>
  <generation param="Gamma">
   <v type="int" name="divisions">       5        5        4 </v>
   <v name="usershift">      0.00000000       0.00000000       0.00000000 </v>
   <v name="genvec1">      0.20000000       0.00000000       0.00000000 </v>
   <v name="genvec2">      0.00000000       0.20000000       0.00000000 </v>
   <v name="genvec3">      0.00000000       0.00000000       0.25000000 </v>
   <v name="shift">      0.00000000       0.00000000       0.00000000 </v>
  </generation>
  <varray name="kpointlist" >
   <v>       0.00000000       0.00000000       0.00000000 </v>
   <v>       0.20000000       0.00000000       0.00000000 </v>
   <v>       0.40000000       0.00000000       0.00000000 </v>
   <v>       0.20000000       0.20000000       0.00000000 </v>
   <v>       0.40000000       0.20000000       0.00000000 </v>
   <v>       0.00000000       0.00000000       0.25000000 </v>
   <v>       0.20000000       0.00000000       0.25000000 </v>
   <v>       0.40000000       0.00000000       0.25000000 </v>
   <v>       0.20000000       0.20000000       0.25000000 </v>
   <v>       0.40000000       0.20000000       0.25000000 </v>
   <v>       0.00000000       0.00000000       0.50000000 </v>
   <v>       0.20000000       0.00000000       0.50000000 </v>
   <v>       0.40000000       0.00000000       0.50000000 </v>
   <v>       0.20000000       0.20000000       0.50000000 </v>
   <v>       0.40000000       0.20000000       0.50000000 </v>
  </varray>
  <varray name="weights" >
   <v>       0.01000000 </v>
   <v>       0.06000000 </v>
   <v>       0.06000000 </v>
   <v>       0.06000000 </v>
   <v>       0.06000000 </v>
   <v>       0.02000000 </v>
   <v>       0.12000000 </v>
   <v>       0.12000000 </v>
   <v>       0.12000000 </v>
   <v>       0.12000000 </v>
   <v>       0.01000000 </v>
   <v>       0.06000000 </v>
   <v>       0.06000000 </v>
   <v>       0.06000000 </v>
   <v>       0.06000000 </v>
  </varray>
 </kpoints>
 <parameters>
  <separator name="general" >
   <i type="string" name="SYSTEM">unknown system</i>
   <i type="logical" name="LCOMPAT"> F  </i>
  </separator>
  <separator name="electronic" >
   <i type="string" name="PREC">accura</i>
   <i name="ENMAX">    500.00000000</i>
   <i name="ENAUG">    569.08500000</i>
   <i name="EDIFF">      0.00000100</i>
   <i type="int" name="IALGO">    38</i>
   <i type="int" name="IWAVPR">    10</i>
   <i type="int" name="NBANDS">    24</i>
   <i type="int" name="NBANDSLOW">    -1</i>
   <i type="int" name="NBANDSHIGH">    -1</i>
   <i name="NELECT">     38.00000000</i>
   <i type="int" name="TURBO">     0</i>
   <i type="int" name="IRESTART">     0</i>
   <i type="int" name="NREBOOT">     0</i>
   <i type="int" name="NMIN">     0</i>
   <i name="EREF">      0.00000000</i>
   <separator name="electronic smearing" >
    <i type="int" name="ISMEAR">     0</i>
    <i name="SIGMA">      0.05000000</i>
    <i name="KSPACING">      0.50000000</i>
    <i type="logical" name="KGAMMA"> T  </i>
    <i type="logical" name="KBLOWUP"> T  </i>
   </separator>
   <separator name="electronic projectors" >
    <i type="logical" name="LREAL"> F  </i>
    <v name="ROPT">      0.00000000      0.00000000</v>
    <i type="int" name="LMAXPAW">  -100</i>
    <i type="int" name="LMAXMIX">     2</i>
    <i type="logical" name="NLSPLINE"> F  </i>
   </separator>
   <separator name="electronic startup" >
    <i type="int" name="ISTART">     0</i>
    <i type="int" name="ICHARG">     2</i>
    <i type="int" name="INIWAV">     1</i>
   </separator>
   <separator name="electronic spin" >
    <i type="int" name="ISPIN">     2</i>
    <i type="logical" name="LNONCOLLINEAR"> F  </i>
    <v name="MAGMOM">      1.00000000     -1.00000000      0.00000000      0.00000000</v>
    <i name="NUPDOWN">     -1.00000000</i>
    <i type="logical" name="LSORBIT"> F  </i>
    <v name="SAXIS">      0.00000000      0.00000000      1.00000000</v>
    <i type="logical" name="LSPIRAL"> F  </i>
    <v name="QSPIRAL">      0.00000000      0.00000000      0.00000000</v>
    <i type="logical" name="LZEROZ"> F  </i>
   </separator>
   <separator name="electronic exchange-correlation" >
    <i type="logical" name="LASPH"> T  </i>
    <i type="logical" name="LMETAGGA"> F  </i>
   </separator>
   <separator name="electronic convergence" >
    <i type="int" name="NELM">    60</i>
    <i type="int" name="NELMDL">     0</i>
    <i type="int" name="NELMIN">     2</i>
    <i name="ENINI">    500.00000000</i>
    <separator name="electronic convergence detail" >
     <i type="logical" name="LDIAG"> T  </i>
     <i type="logical" name="LSUBROT"> F  </i>
     <i name="WEIMIN">      0.00000000</i>
     <i name="EBREAK">      0.00000001</i>
     <i name="DEPER">      0.30000000</i>
     <i type="int" name="NRMM">     4</i>
     <i name="TIME">      0.40000000</i>
    </separator>
   </separator>
   <separator name="electronic mixer" >
    <i name="AMIX">      0.40000000</i>
    <i name="BMIX">      1.00000000</i>
    <i name="AMIN">      0.10000000</i>
    <i name="AMIX_MAG">      1.60000000</i>
    <i name="BMIX_MAG">      1.00000000</i>
    <separator name="electronic mixer details" >
     <i type="int" name="IMIX">     4</i>
     <i type="logical" name="MIXFIRST"> F  </i>
     <i type="int" name="MAXMIX">   -45</i>
     <i name="WC">    100.00000000</i>
     <i type="int" name="INIMIX">     1</i>
     <i type="int" name="MIXPRE">     1</i>
     <i type="int" name="MREMOVE">     5</i>
    </separator>
   </separator>
   <separator name="electronic dipolcorrection" >
    <i type="logical" name="LDIPOL"> F  </i>
    <i type="logical" name="LMONO"> F  </i>
    <i type="int" name="IDIPOL">     0</i>
    <i name="EPSILON">      1.00000000</i>
    <v name="DIPOL">   -100.00000000   -100.00000000   -100.00000000</v>
    <i name="EFIELD">      0.00000000</i>
   </separator>
  </separator>
  <separator name="grids" >
   <i type="int" name="NGX">    30</i>
   <i type="int" name="NGY">    30</i>
   <i type="int" name="NGZ">    50</i>
   <i type="int" name="NGXF">    60</i>
   <i type="int" name="NGYF">    60</i>
   <i type="int" name="NGZF">   100</i>
   <i type="logical" name="ADDGRID"> T  </i>
  </separator>
  <separator name="ionic" >
   <i type="int" name="NSW">     0</i>
   <i type="int" name="IBRION">    -1</i>
   <i type="int" name="MDALGO">     0</i>
   <i type="int" name="ISIF">     2</i>
   <i name="PSTRESS">      0.00000000</i>
   <i name="EDIFFG">     -0.01000000</i>
   <i type="int" name="NFREE">     1</i>
   <i name="POTIM">      0.50000000</i>
   <i name="SMASS">     -3.00000000</i>
   <i name="SCALEE">      1.00000000</i>
  </separator>
  <separator name="ionic md" >
   <i name="TEBEG">      0.00010000</i>
   <i name="TEEND">      0.00010000</i>
   <i type="int" name="NBLOCK">     1</i>
   <i type="int" name="KBLOCK">     1</i>
   <i type="int" name="NPACO">   256</i>
   <i name="APACO">     10.00000000</i>
  </separator>
  <separator name="symmetry" >
   <i type="int" name="ISYM">     2</i>
   <i name="SYMPREC">      0.00001000</i>
  </separator>
  <separator name="dos" >
   <i type="int" name="LORBIT">     0</i>
   <v name="RWIGS">     -1.00000000     -1.00000000</v>
   <i type="int" name="NEDOS">   301</i>
   <i name="EMIN">     10.00000000</i>
   <i name="EMAX">    -10.00000000</i>
   <i name="EFERMI">      0.00000000</i>
  </separator>
  <separator name="writing" >
   <i type="int" name="NWRITE">     2</i>
   <i type="logical" name="LWAVE"> T  </i>
   <i type="logical" name="LDOWNSAMPLE"> F  </i>
   <i type="logical" name="LCHARG"> T  </i>
   <i type="logical" name="LPARD"> F  </i>
   <i type="logical" name="LVTOT"> F  </i>
   <i type="logical" name="LVHAR"> F  </i>
   <i type="logical" name="LELF"> F  </i>
   <i type="logical" name="LOPTICS"> F  </i>
   <v name="STM">      0.00000000      0.00000000      0.00000000      0.00000000      0.00000000      0.00000000      0.00000000</v>
  </separator>
  <separator name="performance" >
   <i type="int" name="NPAR">     6</i>
   <i type="int" name="NSIM">     4</i>
   <i type="int" name="NBLK">    -1</i>
   <i type="logical" name="LPLANE"> T  </i>
   <i type="logical" name="LSCALAPACK"> T  </i>
   <i type="logical" name="LSCAAWARE"> F  </i>
   <i type="logical" name="LSCALU"> F  </i>
   <i type="logical" name="LASYNC"> F  </i>
   <i type="logical" name="LORBITALREAL"> F  </i>
  </separator>
  <separator name="miscellaneous" >
   <i type="int" name="IDIOT">     3</i>
   <i type="int" name="PHON_NSTRUCT">    -1</i>
   <i type="logical" name="LMUSIC"> F  </i>
   <v name="POMASS">     54.93800000    127.60000000</v>
   <v name="DARWINR">      0.00000000      0.00000000</v>
   <v name="DARWINV">      1.00000000      1.00000000</v>
   <i type="logical" name="LCORR"> T  </i>
  </separator>
  <i type="logical" name="GGA_COMPAT"> T  </i>
  <i type="logical" name="LBERRY"> F  </i>
  <i type="int" name="ICORELEVEL">     0</i>
  <i type="logical" name="LDAU"> F  </i>
  <i type="int" name="I_CONSTRAINED_M">     0</i>
  <separator name="electronic exchange-correlation" >
   <i type="string" name="GGA">--</i>
   <i type="int" name="VOSKOWN">     0</i>
   <i type="logical" name="LHFCALC"> F  </i>
   <i type="string" name="PRECFOCK"></i>
   <i type="logical" name="LSYMGRAD"> F  </i>
   <i type="logical" name="LHFONE"> F  </i>
   <i type="logical" name="LRHFCALC"> F  </i>
   <i type="logical" name="LTHOMAS"> F  </i>
   <i type="logical" name="LMODELHF"> F  </i>
   <i type="logical" name="LFOCKACE"> F  </i>
   <i name="ENCUT4O">     -1.00000000</i>
   <i type="int" name="EXXOEP">     0</i>
   <i type="int" name="FOURORBIT">     0</i>
   <i name="AEXX">      0.00000000</i>
   <i name="HFALPHA">      0.00000000</i>
   <i name="MCALPHA">      0.00000000</i>
   <i name="ALDAX">      1.00000000</i>
   <i name="AGGAX">      1.00000000</i>
   <i name="ALDAC">      1.00000000</i>
   <i name="AGGAC">      1.00000000</i>
   <i type="int" name="NKREDX">     1</i>
   <i type="int" name="NKREDY">     1</i>
   <i type="int" name="NKREDZ">     1</i>
   <i type="logical" name="SHIFTRED"> F  </i>
   <i type="logical" name="ODDONLY"> F  </i>
   <i type="logical" name="EVENONLY"> F  </i>
   <i type="int" name="LMAXFOCK">     0</i>
   <i type="int" name="NMAXFOCKAE">     0</i>
   <i type="logical" name="LFOCKAEDFT"> F  </i>
   <i name="HFSCREEN">      0.00000000</i>
   <i name="HFSCREENC">      0.00000000</i>
   <i type="int" name="NBANDSGWLOW">     0</i>
  </separator>
  <separator name="vdW DFT" >
   <i type="logical" name="LUSE_VDW"> F  </i>
   <i type="int" name="IVDW_NL">     1</i>
   <i type="logical" name="LSPIN_VDW"> F  </i>
   <i name="Zab_VDW">     -0.84910000</i>
   <i name="PARAM1">      0.12340000</i>
   <i name="PARAM2">      1.00000000</i>
   <i name="PARAM3">      0.00000000</i>
  </separator>
  <separator name="model GW" >
   <i type="int" name="MODEL_GW">     0</i>
   <i name="MODEL_EPS0">     15.28081193</i>
   <i name="MODEL_ALPHA">      1.00000000</i>
  </separator>
  <separator name="linear response parameters" >
   <i type="logical" name="LEPSILON"> F  </i>
   <i type="logical" name="LRPA"> F  </i>
   <i type="logical" name="LNABLA"> F  </i>
   <i type="logical" name="LVEL"> F  </i>
   <i name="CSHIFT">      0.10000000</i>
   <i name="OMEGAMAX">     -1.00000000</i>
   <i name="DEG_THRESHOLD">      0.00200000</i>
   <i name="RTIME">     -0.10000000</i>
   <i name="WPLASMAI">      0.00000000</i>
   <v name="DFIELD">      0.00000000      0.00000000      0.00000000</v>
   <v name="WPLASMA">      0.00000000      0.00000000      0.00000000      0.00000000      0.00000000      0.00000000      0.00000000      0.00000000      0.00000000</v>
  </separator>
  <separator name="orbital magnetization" >
   <i type="logical" name="NUCIND"> F  </i>
   <v name="MAGPOS">      0.00000000      0.00000000      0.00000000</v>
   <i type="logical" name="LNICSALL"> T  </i>
   <i type="logical" name="ORBITALMAG"> F  </i>
   <i type="logical" name="LMAGBLOCH"> F  </i>
   <i type="logical" name="LCHIMAG"> F  </i>
   <i type="logical" name="LGAUGE"> T  </i>
   <i type="int" name="MAGATOM">     0</i>
   <v name="MAGDIPOL">      0.00000000      0.00000000      0.00000000</v>
   <v name="AVECCONST">      0.00000000      0.00000000      0.00000000</v>
  </separator>
  <separator name="response functions" >
   <i type="logical" name="LALL_IN_ONE"> F  </i>
   <i type="int" name="IALL_IN_ONE">    -1</i>
   <i type="int" name="NBANDS_WAVE">    -1</i>
   <i type="logical" name="LFINITE_TEMPERATURE"> F  </i>
   <i type="logical" name="LADDER"> F  </i>
   <i type="logical" name="LRPAFORCE"> F  </i>
   <i type="logical" name="LFXC"> F  </i>
   <i type="logical" name="LHARTREE"> T  </i>
   <i type="int" name="IBSE">     0</i>
   <v type="int" name="KPOINT">    -1     0     0     0</v>
   <i type="logical" name="LTCTC"> F  </i>
   <i type="logical" name="LTCTE"> F  </i>
   <i type="logical" name="LTETE"> F  </i>
   <i type="logical" name="LTRIPLET"> F  </i>
   <i type="logical" name="LFXCEPS"> F  </i>
   <i type="logical" name="LFXHEG"> F  </i>
   <i type="int" name="NATURALO">     2</i>
   <i type="logical" name="LHOLEGF"> F  </i>
   <i type="logical" name="L2ORDER"> F  </i>
   <i type="logical" name="LDMP1"> F  </i>
   <i type="logical" name="LMP2LT"> F  </i>
   <i type="logical" name="LSMP2LT"> F  </i>
   <i type="logical" name="LGWLF"> F  </i>
   <i name="ENCUTGW">     -1.60000002</i>
   <i name="ENCUTGWSOFT">     -1.60000002</i>
   <i name="ENCUTLF">     -1.00000000</i>
   <i type="logical" name="LESF_SPLINES"> F  </i>
   <i type="int" name="LMAXMP2">    -1</i>
   <i name="SCISSOR">      0.00000000</i>
   <i type="int" name="NOMEGA">     0</i>
   <i type="int" name="NOMEGAR">     0</i>
   <i type="int" name="NBANDSGW">    -1</i>
   <i type="int" name="NBANDSO">    -1</i>
   <i type="int" name="NBANDSV">    -1</i>
   <i type="int" name="NELMGW">     1</i>
   <i type="int" name="NELMHF">     1</i>
   <i type="int" name="DIM">     3</i>
   <i type="int" name="IESPILON">     4</i>
   <i type="int" name="ANTIRES">     0</i>
   <i name="OMEGAMAX">    -30.00000000</i>
   <i name="OMEGAMIN">    -30.00000000</i>
   <i name="OMEGATL">   -200.00000000</i>
   <i type="int" name="OMEGAGRID">     0</i>
   <i name="CSHIFT">     -0.10000000</i>
   <i type="logical" name="LSELFENERGY"> F  </i>
   <i type="logical" name="LSPECTRAL"> F  </i>
   <i type="logical" name="LSPECTRALGW"> F  </i>
   <i type="logical" name="LSINGLES"> F  </i>
   <i type="logical" name="LFERMIGW"> F  </i>
   <i type="logical" name="ODDONLYGW"> F  </i>
   <i type="logical" name="EVENONLYGW"> F  </i>
   <i type="int" name="NKREDLFX">     1</i>
   <i type="int" name="NKREDLFY">     1</i>
   <i type="int" name="NKREDLFZ">     1</i>
   <i type="int" name="MAXMEM">  2800</i>
   <i type="int" name="TELESCOPE">     0</i>
   <i type="int" name="NTAUPAR">    -1</i>
   <i type="int" name="NOMEGAPAR">    -1</i>
   <i name="DAMP_NEWTON">      0.80000001</i>
   <i name="LAMBDA">      1.00000000</i>
  </separator>
  <separator name="External order field" >
   <i name="OFIELD_KAPPA">      0.00000000</i>
   <v name="OFIELD_K">      0.00000000      0.00000000      0.00000000</v>
   <i name="OFIELD_Q6_NEAR">      0.00000000</i>
   <i name="OFIELD_Q6_FAR">      0.00000000</i>
   <i name="OFIELD_A">      0.00000000</i>
  </separator>
  <separator name="optional k-points parameters" >
   <i type="int" name="KPOINTS_OPT_MODE">     1</i>
   <i type="logical" name="LKPOINTS_OPT"> F  </i>
  </separator>
 </parameters>
 <atominfo>
  <atoms>       4 </atoms>
  <types>       2 </types>
  <array name="atoms" >
   <dimension dim="1">ion</dimension>
   <field type="string">element</field>
   <field type="int">atomtype</field>
   <set>
    <rc><c>Mn</c><c>   1</c></rc>
    <rc><c>Mn</c><c>   1</c></rc>
    <rc><c>Te</c><c>   2</c></rc>
    <rc><c>Te</c><c>   2</c></rc>
   </set>
  </array>
  <array name="atomtypes" >
   <dimension dim="1">type</dimension>
   <field type="int">atomspertype</field>
   <field type="string">element</field>
   <field>mass</field>
   <field>valence</field>
   <field type="string">pseudopotential</field>
   <set>
    <rc><c>   2</c><c>Mn</c><c>     54.93800000</c><c>     13.00000000</c><c>  PAW_PBE Mn_pv 02Aug2007               </c></rc>
    <rc><c>   2</c><c>Te</c><c>    127.60000000</c><c>      6.00000000</c><c>  PAW_PBE Te 08Apr2002                  </c></rc>
   </set>
  </array>
 </atominfo>
 <structure name="initialpos" >
  <crystal>
   <varray name="basis" >
    <v>       4.17349005       0.00000000       0.00000000 </v>
    <v>      -2.08674502       3.61434840       0.00000000 </v>
    <v>       0.00000000       0.00000000       6.75345135 </v>
   </varray>
   <i name="volume">    101.87207953 </i>
   <varray name="rec_basis" >
    <v>       0.23960762       0.13833752       0.00000000 </v>
    <v>       0.00000000       0.27667504       0.00000000 </v>
    <v>       0.00000000       0.00000000       0.14807244 </v>
   </varray>
  </crystal>
  <varray name="positions" >
   <v>       0.00000000       0.00000000       0.00000000 </v>
   <v>       0.00000000       0.00000000       0.50000000 </v>
   <v>       0.33333334       0.66666669       0.25000000 </v>
   <v>       0.66666666       0.33333331       0.75000000 </v>
  </varray>
 </structure>
 <calculation>
  <scstep>
   <time name="dav">    2.11    2.13</time>
   <time name="total">    3.47    3.53</time>
   <energy>
    <i name="alphaZ">     72.43094580 </i>
    <i name="ewald">  -2687.77321596 </i>
    <i name="hartreedc">  -1565.14315478 </i>
    <i name="XCdc">     79.60163935 </i>
    <i name="pawpsdc">   3707.91261391 </i>
    <i name="pawaedc">  -3732.42413546 </i>
    <i name="eentropy">     -0.00634952 </i>
    <i name="bandstr">   -140.26031381 </i>
    <i name="atom">   4497.06325368 </i>
    <i name="e_fr_energy">    231.40128321 </i>
    <i name="e_wo_entrp">    231.40763274 </i>
    <i name="e_0_energy">    231.40445797 </i>
   </energy>
  </scstep>
  <scstep>
   <time name="dav">    1.83    1.85</time>
   <time name="total">    1.83    1.85</time>
   <energy>
    <i name="e_fr_energy">    -10.18182577 </i>
    <i name="e_wo_entrp">    -10.17317543 </i>
    <i name="e_0_energy">    -10.17750060 </i>
   </energy>
  </scstep>
  <scstep>
   <time name="dav">    2.26    2.27</time>
   <time name="total">    2.26    2.28</time>
   <energy>
    <i name="e_fr_energy">    -23.03890357 </i>
    <i name="e_wo_entrp">    -23.02974500 </i>
    <i name="e_0_energy">    -23.03432429 </i>
   </energy>
  </scstep>
  <scstep>
   <time name="dav">    2.05    2.06</time>
   <time name="total">    2.05    2.07</time>
   <energy>
    <i name="e_fr_energy">    -23.28748952 </i>
    <i name="e_wo_entrp">    -23.27702366 </i>
    <i name="e_0_energy">    -23.28225659 </i>
   </energy>
  </scstep>
  <scstep>
   <time name="dav">    2.41    2.42</time>
   <time name="total">    2.80    2.82</time>
   <energy>
    <i name="e_fr_energy">    -23.29281838 </i>
    <i name="e_wo_entrp">    -23.28237217 </i>
    <i name="e_0_energy">    -23.28759527 </i>
   </energy>
  </scstep>
  <scstep>
   <time name="dav">    2.07    2.08</time>
   <time name="total">    3.79    3.82</time>
   <energy>
    <i name="e_fr_energy">    -27.25691290 </i>
    <i name="e_wo_entrp">    -27.24456223 </i>
    <i name="e_0_energy">    -27.25073756 </i>
   </energy>
  </scstep>
  <scstep>
   <time name="dav">    2.22    2.22</time>
   <time name="total">    3.99    4.01</time>
   <energy>
    <i name="e_fr_energy">    -23.40732410 </i>
    <i name="e_wo_entrp">    -23.40574686 </i>
    <i name="e_0_energy">    -23.40653548 </i>
   </energy>
  </scstep>
  <scstep>
   <time name="dav">    2.00    2.00</time>
   <time name="total">    3.71    3.73</time>
   <energy>
    <i name="e_fr_energy">    -23.76612650 </i>
    <i name="e_wo_entrp">    -23.76458166 </i>
    <i name="e_0_energy">    -23.76535408 </i>
   </energy>
  </scstep>
  <scstep>
   <time name="dav">    2.30    2.30</time>
   <time name="total">    4.00    4.03</time>
   <energy>
    <i name="e_fr_energy">    -24.30212790 </i>
    <i name="e_wo_entrp">    -24.30036646 </i>
    <i name="e_0_energy">    -24.30124718 </i>
   </energy>
  </scstep>
  <scstep>
   <time name="dav">    2.25    2.25</time>
   <time name="total">    3.96    3.98</time>
   <energy>
    <i name="e_fr_energy">    -24.67836090 </i>
    <i name="e_wo_entrp">    -24.67835442 </i>
    <i name="e_0_energy">    -24.67835766 </i>
   </energy>
  </scstep>
  <scstep>
   <time name="dav">    2.26    2.26</time>
   <time name="total">    3.98    4.00</time>
   <energy>
    <i name="e_fr_energy">    -24.72415892 </i>
    <i name="e_wo_entrp">    -24.72329469 </i>
    <i name="e_0_energy">    -24.72372681 </i>
   </energy>
  </scstep>
  <scstep>
   <time name="dav">    2.00    2.00</time>
   <time name="total">    3.75    3.77</time>
   <energy>
    <i name="e_fr_energy">    -24.75102857 </i>
    <i name="e_wo_entrp">    -24.75064496 </i>
    <i name="e_0_energy">    -24.75083677 </i>
   </energy>
  </scstep>
  <scstep>
   <time name="dav">    2.14    2.14</time>
   <time name="total">    3.86    3.88</time>
   <energy>
    <i name="e_fr_energy">    -24.75256923 </i>
    <i name="e_wo_entrp">    -24.75239646 </i>
    <i name="e_0_energy">    -24.75248284 </i>
   </energy>
  </scstep>
  <scstep>
   <time name="dav">    2.35    2.35</time>
   <time name="total">    4.02    4.04</time>
   <energy>
    <i name="e_fr_energy">    -24.75159871 </i>
    <i name="e_wo_entrp">    -24.75146686 </i>
    <i name="e_0_energy">    -24.75153279 </i>
   </energy>
  </scstep>
  <scstep>
   <time name="dav">    2.27    2.27</time>
   <time name="total">    4.00    4.02</time>
   <energy>
    <i name="e_fr_energy">    -24.75151086 </i>
    <i name="e_wo_entrp">    -24.75140820 </i>
    <i name="e_0_energy">    -24.75145953 </i>
   </energy>
  </scstep>
  <scstep>
   <time name="dav">    2.29    2.29</time>
   <time name="total">    4.02    4.05</time>
   <energy>
    <i name="e_fr_energy">    -24.75124443 </i>
    <i name="e_wo_entrp">    -24.75117719 </i>
    <i name="e_0_energy">    -24.75121081 </i>
   </energy>
  </scstep>
  <scstep>
   <time name="dav">    2.37    2.37</time>
   <time name="total">    4.10    4.12</time>
   <energy>
    <i name="e_fr_energy">    -24.75112036 </i>
    <i name="e_wo_entrp">    -24.75105802 </i>
    <i name="e_0_energy">    -24.75108919 </i>
   </energy>
  </scstep>
  <scstep>
   <time name="dav">    2.26    2.26</time>
   <time name="total">    4.00    4.02</time>
   <energy>
    <i name="e_fr_energy">    -24.75113391 </i>
    <i name="e_wo_entrp">    -24.75108262 </i>
    <i name="e_0_energy">    -24.75110827 </i>
   </energy>
  </scstep>
  <scstep>
   <time name="dav">    2.32    2.32</time>
   <time name="total">    4.05    4.07</time>
   <energy>
    <i name="e_fr_energy">    -24.75111358 </i>
    <i name="e_wo_entrp">    -24.75106962 </i>
    <i name="e_0_energy">    -24.75109160 </i>
   </energy>
  </scstep>
  <scstep>
   <time name="dav">    2.34    2.34</time>
   <time name="total">    4.05    4.06</time>
   <energy>
    <i name="e_fr_energy">    -24.75111379 </i>
    <i name="e_wo_entrp">    -24.75107077 </i>
    <i name="e_0_energy">    -24.75109228 </i>
   </energy>
  </scstep>
  <scstep>
   <time name="dav">    1.23    1.23</time>
   <time name="total">    2.60    2.61</time>
   <energy>
    <i name="alphaZ">     72.43094580 </i>
    <i name="ewald">  -2687.77321596 </i>
    <i name="hartreedc">  -1509.15370562 </i>
    <i name="XCdc">     81.99159981 </i>
    <i name="pawpsdc">   4380.84107547 </i>
    <i name="pawaedc">  -4410.01080699 </i>
    <i name="eentropy">     -0.00004327 </i>
    <i name="bandstr">   -450.14021698 </i>
    <i name="atom">   4497.06325368 </i>
    <i name="e_fr_energy">    -24.75111406 </i>
    <i name="e_wo_entrp">    -24.75107079 </i>
    <i name="e_0_energy">    -24.75109243 </i>
   </energy>
  </scstep>
  <structure>
   <crystal>
    <varray name="basis" >
     <v>       4.17349005       0.00000000       0.00000000 </v>
     <v>      -2.08674502       3.61434840       0.00000000 </v>
     <v>       0.00000000       0.00000000       6.75345135 </v>
    </varray>
    <i name="volume">    101.87207953 </i>
    <varray name="rec_basis" >
     <v>       0.23960762       0.13833752       0.00000000 </v>
     <v>       0.00000000       0.27667504       0.00000000 </v>
     <v>       0.00000000       0.00000000       0.14807244 </v>
    </varray>
   </crystal>
   <varray name="positions" >
    <v>       0.00000000       0.00000000       0.00000000 </v>
    <v>       0.00000000       0.00000000       0.50000000 </v>
    <v>       0.33333334       0.66666669       0.25000000 </v>
    <v>       0.66666666       0.33333331       0.75000000 </v>
   </varray>
  </structure>
  <varray name="forces" >
   <v>       0.00000000      -0.00000000       0.00000000 </v>
   <v>       0.00000000      -0.00000000       0.00000000 </v>
   <v>      -0.00000000       0.00000000      -0.00000000 </v>
   <v>       0.00000000      -0.00000000       0.00000000 </v>
  </varray>
  <varray name="stress" >
   <v>     -27.63724411      -0.00000000      -0.00000000 </v>
   <v>      -0.00000000     -27.63724411      -0.00000000 </v>
   <v>       0.00000000       0.00000000     -42.69352096 </v>
  </varray>
  <energy>
   <i name="e_fr_energy">    -24.75111406 </i>
   <i name="e_wo_entrp">    -24.75107079 </i>
   <i name="e_0_energy">    -24.75109243 </i>
  </energy>
  <time name="totalsc">   85.86  105.61</time>
  <eigenvalues>
   <array>
    <dimension dim="1">band</dimension>
    <dimension dim="2">kpoint</dimension>
    <dimension dim="3">spin</dimension>
    <field>eigene</field>
    <field>occ</field>
    <set>
     <set comment="spin 1">
      <set comment="kpoint 1">
       <r>  -44.2312    1.0000 </r>
       <r>  -44.2312    1.0000 </r>
       <r>  -44.2283    1.0000 </r>
       <r>  -39.8510    1.0000 </r>
       <r>  -39.8440    1.0000 </r>
       <r>  -39.8440    1.0000 </r>
       <r>   -5.9839    1.0000 </r>
       <r>   -4.7649    1.0000 </r>
       <r>    0.6301    1.0000 </r>
       <r>    2.6430    1.0000 </r>
       <r>    2.6430    1.0000 </r>
       <r>    3.2776    1.0000 </r>
       <r>    3.2852    1.0000 </r>
       <r>    3.2852    1.0000 </r>
       <r>    5.1414    1.0000 </r>
       <r>    5.1414    1.0000 </r>
       <r>    5.5874    1.0000 </r>
       <r>    5.5874    1.0000 </r>
       <r>    5.7846    1.0000 </r>
       <r>    7.0796    0.0000 </r>
       <r>    7.0796    0.0000 </r>
       <r>    7.2268    0.0000 </r>
       <r>    8.2388    0.0000 </r>
       <r>    8.3899    0.0000 </r>
      </set>
      <set comment="kpoint 2">
       <r>  -44.2315    1.0000 </r>
       <r>  -44.2313    1.0000 </r>
       <r>  -44.2282    1.0000 </r>
       <r>  -39.8509    1.0000 </r>
       <r>  -39.8445    1.0000 </r>
       <r>  -39.8441    1.0000 </r>
       <r>   -5.6848    1.0000 </r>
       <r>   -4.6543    1.0000 </r>
       <r>    1.0619    1.0000 </r>
       <r>    2.4444    1.0000 </r>
       <r>    2.6899    1.0000 </r>
       <r>    2.8063    1.0000 </r>
       <r>    3.2311    1.0000 </r>
       <r>    3.2535    1.0000 </r>
       <r>    3.8442    1.0000 </r>
       <r>    4.2538    1.0000 </r>
       <r>    4.7229    1.0000 </r>
       <r>    5.4490    1.0000 </r>
       <r>    5.9677    1.0000 </r>
       <r>    6.9420    0.0000 </r>
       <r>    7.3130    0.0000 </r>
       <r>    7.3877    0.0000 </r>
       <r>    7.8794    0.0000 </r>
       <r>    8.2736    0.0000 </r>
      </set>
      <set comment="kpoint 3">
       <r>  -44.2321    1.0000 </r>
       <r>  -44.2314    1.0000 </r>
       <r>  -44.2281    1.0000 </r>
       <r>  -39.8508    1.0000 </r>
       <r>  -39.8453    1.0000 </r>
       <r>  -39.8443    1.0000 </r>
       <r>   -5.0053    1.0000 </r>
       <r>   -4.5449    1.0000 </r>
       <r>    1.0537    1.0000 </r>
       <r>    2.1196    1.0000 </r>
       <r>    2.2836    1.0000 </r>
       <r>    2.6773    1.0000 </r>
       <r>    2.9751    1.0000 </r>
       <r>    3.2684    1.0000 </r>
       <r>    3.3592    1.0000 </r>
       <r>    3.6957    1.0000 </r>
       <r>    4.0197    1.0000 </r>
       <r>    5.0120    1.0000 </r>
       <r>    5.3325    1.0000 </r>
       <r>    6.7439    0.0000 </r>
       <r>    7.4272    0.0000 </r>
       <r>    7.4923    0.0000 </r>
       <r>    7.7399    0.0000 </r>
       <r>    8.4688    0.0000 </r>
      </set>
      <set comment="kpoint 4">
       <r>  -44.2319    1.0000 </r>
       <r>  -44.2315    1.0000 </r>
       <r>  -44.2281    1.0000 </r>
       <r>  -39.8508    1.0000 </r>
       <r>  -39.8450    1.0000 </r>
       <r>  -39.8444    1.0000 </r>
       <r>   -5.1878    1.0000 </r>
       <r>   -4.5293    1.0000 </r>
       <r>    1.6933    1.0000 </r>
       <r>    1.8339    1.0000 </r>
       <r>    2.2358    1.0000 </r>
       <r>    2.5829    1.0000 </r>
       <r>    2.8425    1.0000 </r>
       <r>    3.2716    1.0000 </r>
       <r>    3.3955    1.0000 </r>
       <r>    3.6433    1.0000 </r>
       <r>    4.4885    1.0000 </r>
       <r>    4.7252    1.0000 </r>
       <r>    5.5922    1.0000 </r>
       <r>    7.0970    0.0000 </r>
       <r>    7.4396    0.0000 </r>
       <r>    7.5115    0.0000 </r>
       <r>    7.6137    0.0000 </r>
       <r>    8.0972    0.0000 </r>
      </set>
      <set comment="kpoint 5">
       <r>  -44.2320    1.0000 </r>
       <r>  -44.2316    1.0000 </r>
       <r>  -44.2281    1.0000 </r>
       <r>  -39.8507    1.0000 </r>
       <r>  -39.8452    1.0000 </r>
       <r>  -39.8446    1.0000 </r>
       <r>   -4.7016    1.0000 </r>
       <r>   -4.5573    1.0000 </r>
       <r>    0.9066    1.0000 </r>
       <r>    2.1049    1.0000 </r>
       <r>    2.4034    1.0000 </r>
       <r>    2.6329    1.0000 </r>
       <r>    2.6992    1.0000 </r>
       <r>    2.9778    1.0000 </r>
       <r>    3.4718    1.0000 </r>
       <r>    3.7003    1.0000 </r>
       <r>    3.9571    1.0000 </r>
       <r>    4.7380    1.0000 </r>
       <r>    4.7532    1.0000 </r>
       <r>    6.9602    0.0000 </r>
       <r>    7.3928    0.0000 </r>
       <r>    7.4483    0.0000 </r>
       <r>    7.6979    0.0000 </r>
       <r>    7.7758    0.0000 </r>
      </set>
      <set comment="kpoint 6">
       <r>  -44.2312    1.0000 </r>
       <r>  -44.2312    1.0000 </r>
       <r>  -44.2283    1.0000 </r>
       <r>  -39.8510    1.0000 </r>
       <r>  -39.8440    1.0000 </r>
       <r>  -39.8440    1.0000 </r>
       <r>   -5.8462    1.0000 </r>
       <r>   -5.0015    1.0000 </r>
       <r>    1.1552    1.0000 </r>
       <r>    2.6841    1.0000 </r>
       <r>    2.6841    1.0000 </r>
       <r>    3.2448    1.0000 </r>
       <r>    3.2888    1.0000 </r>
       <r>    3.2888    1.0000 </r>
       <r>    4.6596    1.0000 </r>
       <r>    4.7404    1.0000 </r>
       <r>    4.7404    1.0000 </r>
       <r>    6.0659    1.0000 </r>
       <r>    6.0659    1.0000 </r>
       <r>    7.0567    0.0000 </r>
       <r>    7.0567    0.0000 </r>
       <r>    7.0801    0.0000 </r>
       <r>    8.2947    0.0000 </r>
       <r>    8.2947    0.0000 </r>
      </set>
      <set comment="kpoint 7">
       <r>  -44.2315    1.0000 </r>
       <r>  -44.2313    1.0000 </r>
       <r>  -44.2282    1.0000 </r>
       <r>  -39.8509    1.0000 </r>
       <r>  -39.8445    1.0000 </r>
       <r>  -39.8441    1.0000 </r>
       <r>   -5.5617    1.0000 </r>
       <r>   -4.8448    1.0000 </r>
       <r>    1.4051    1.0000 </r>
       <r>    2.4425    1.0000 </r>
       <r>    2.7423    1.0000 </r>
       <r>    2.8324    1.0000 </r>
       <r>    3.2201    1.0000 </r>
       <r>    3.3059    1.0000 </r>
       <r>    3.6227    1.0000 </r>
       <r>    4.1599    1.0000 </r>
       <r>    4.4190    1.0000 </r>
       <r>    5.7873    1.0000 </r>
       <r>    5.8828    1.0000 </r>
       <r>    6.9413    0.0000 </r>
       <r>    7.3224    0.0000 </r>
       <r>    7.3950    0.0000 </r>
       <r>    7.6338    0.0000 </r>
       <r>    7.9445    0.0000 </r>
      </set>
      <set comment="kpoint 8">
       <r>  -44.2321    1.0000 </r>
       <r>  -44.2314    1.0000 </r>
       <r>  -44.2281    1.0000 </r>
       <r>  -39.8508    1.0000 </r>
       <r>  -39.8453    1.0000 </r>
       <r>  -39.8443    1.0000 </r>
       <r>   -4.9339    1.0000 </r>
       <r>   -4.6211    1.0000 </r>
       <r>    1.0704    1.0000 </r>
       <r>    1.6685    1.0000 </r>
       <r>    2.6705    1.0000 </r>
       <r>    2.6902    1.0000 </r>
       <r>    2.9381    1.0000 </r>
       <r>    3.3233    1.0000 </r>
       <r>    3.3580    1.0000 </r>
       <r>    3.6201    1.0000 </r>
       <r>    3.9638    1.0000 </r>
       <r>    5.4930    1.0000 </r>
       <r>    5.7448    1.0000 </r>
       <r>    6.6625    0.0000 </r>
       <r>    7.3818    0.0000 </r>
       <r>    7.3884    0.0000 </r>
       <r>    7.6808    0.0000 </r>
       <r>    8.0355    0.0000 </r>
      </set>
      <set comment="kpoint 9">
       <r>  -44.2319    1.0000 </r>
       <r>  -44.2315    1.0000 </r>
       <r>  -44.2281    1.0000 </r>
       <r>  -39.8508    1.0000 </r>
       <r>  -39.8450    1.0000 </r>
       <r>  -39.8444    1.0000 </r>
       <r>   -5.1008    1.0000 </r>
       <r>   -4.6364    1.0000 </r>
       <r>    1.6022    1.0000 </r>
       <r>    1.6611    1.0000 </r>
       <r>    2.5792    1.0000 </r>
       <r>    2.6358    1.0000 </r>
       <r>    2.8442    1.0000 </r>
       <r>    3.3313    1.0000 </r>
       <r>    3.4305    1.0000 </r>
       <r>    3.7732    1.0000 </r>
       <r>    4.1707    1.0000 </r>
       <r>    4.8001    1.0000 </r>
       <r>    5.5149    1.0000 </r>
       <r>    7.1126    0.0000 </r>
       <r>    7.3089    0.0000 </r>
       <r>    7.4626    0.0000 </r>
       <r>    7.6036    0.0000 </r>
       <r>    8.0740    0.0000 </r>
      </set>
      <set comment="kpoint 10">
       <r>  -44.2321    1.0000 </r>
       <r>  -44.2317    1.0000 </r>
       <r>  -44.2281    1.0000 </r>
       <r>  -39.8507    1.0000 </r>
       <r>  -39.8452    1.0000 </r>
       <r>  -39.8446    1.0000 </r>
       <r>   -4.6768    1.0000 </r>
       <r>   -4.5739    1.0000 </r>
       <r>    0.9943    1.0000 </r>
       <r>    1.7825    1.0000 </r>
       <r>    2.3173    1.0000 </r>
       <r>    2.5815    1.0000 </r>
       <r>    2.7810    1.0000 </r>
       <r>    3.0372    1.0000 </r>
       <r>    3.4881    1.0000 </r>
       <r>    3.6203    1.0000 </r>
       <r>    3.8866    1.0000 </r>
       <r>    4.8647    1.0000 </r>
       <r>    5.1978    1.0000 </r>
       <r>    6.9590    0.0000 </r>
       <r>    7.4010    0.0000 </r>
       <r>    7.4749    0.0000 </r>
       <r>    7.6907    0.0000 </r>
       <r>    7.9097    0.0000 </r>
      </set>
      <set comment="kpoint 11">
       <r>  -44.2312    1.0000 </r>
       <r>  -44.2312    1.0000 </r>
       <r>  -44.2283    1.0000 </r>
       <r>  -39.8510    1.0000 </r>
       <r>  -39.8440    1.0000 </r>
       <r>  -39.8440    1.0000 </r>
       <r>   -5.4922    1.0000 </r>
       <r>   -5.4464    1.0000 </r>
       <r>    2.1471    1.0000 </r>
       <r>    2.7294    1.0000 </r>
       <r>    2.7294    1.0000 </r>
       <r>    2.7733    1.0000 </r>
       <r>    3.2928    1.0000 </r>
       <r>    3.2928    1.0000 </r>
       <r>    3.7872    1.0000 </r>
       <r>    4.5082    1.0000 </r>
       <r>    4.5082    1.0000 </r>
       <r>    6.4067    0.9950 </r>
       <r>    6.4067    0.9950 </r>
       <r>    6.9469    0.0000 </r>
       <r>    7.0130    0.0000 </r>
       <r>    7.0130    0.0000 </r>
       <r>    8.1869    0.0000 </r>
       <r>    8.1869    0.0000 </r>
      </set>
      <set comment="kpoint 12">
       <r>  -44.2316    1.0000 </r>
       <r>  -44.2313    1.0000 </r>
       <r>  -44.2282    1.0000 </r>
       <r>  -39.8509    1.0000 </r>
       <r>  -39.8445    1.0000 </r>
       <r>  -39.8441    1.0000 </r>
       <r>   -5.2507    1.0000 </r>
       <r>   -5.2183    1.0000 </r>
       <r>    1.9742    1.0000 </r>
       <r>    2.1164    1.0000 </r>
       <r>    2.7535    1.0000 </r>
       <r>    2.8249    1.0000 </r>
       <r>    3.2191    1.0000 </r>
       <r>    3.3239    1.0000 </r>
       <r>    3.6636    1.0000 </r>
       <r>    4.4495    1.0000 </r>
       <r>    4.4819    1.0000 </r>
       <r>    4.9686    1.0000 </r>
       <r>    5.7471    1.0000 </r>
       <r>    6.8327    0.0000 </r>
       <r>    7.2697    0.0000 </r>
       <r>    7.4447    0.0000 </r>
       <r>    7.6213    0.0000 </r>
       <r>    7.9020    0.0000 </r>
      </set>
      <set comment="kpoint 13">
       <r>  -44.2321    1.0000 </r>
       <r>  -44.2314    1.0000 </r>
       <r>  -44.2281    1.0000 </r>
       <r>  -39.8508    1.0000 </r>
       <r>  -39.8453    1.0000 </r>
       <r>  -39.8443    1.0000 </r>
       <r>   -4.7875    1.0000 </r>
       <r>   -4.7688    1.0000 </r>
       <r>    1.0902    1.0000 </r>
       <r>    1.2956    1.0000 </r>
       <r>    2.6704    1.0000 </r>
       <r>    2.6847    1.0000 </r>
       <r>    3.2538    1.0000 </r>
       <r>    3.3690    1.0000 </r>
       <r>    3.4464    1.0000 </r>
       <r>    3.9537    1.0000 </r>
       <r>    4.0298    1.0000 </r>
       <r>    5.4220    1.0000 </r>
       <r>    5.4585    1.0000 </r>
       <r>    6.6016    0.0017 </r>
       <r>    7.3941    0.0000 </r>
       <r>    7.4254    0.0000 </r>
       <r>    7.7451    0.0000 </r>
       <r>    7.7997    0.0000 </r>
      </set>
      <set comment="kpoint 14">
       <r>  -44.2319    1.0000 </r>
       <r>  -44.2315    1.0000 </r>
       <r>  -44.2281    1.0000 </r>
       <r>  -39.8508    1.0000 </r>
       <r>  -39.8450    1.0000 </r>
       <r>  -39.8444    1.0000 </r>
       <r>   -4.8835    1.0000 </r>
       <r>   -4.8738    1.0000 </r>
       <r>    1.5545    1.0000 </r>
       <r>    1.5676    1.0000 </r>
       <r>    2.7176    1.0000 </r>
       <r>    2.7793    1.0000 </r>
       <r>    2.7827    1.0000 </r>
       <r>    3.4270    1.0000 </r>
       <r>    3.4467    1.0000 </r>
       <r>    3.8663    1.0000 </r>
       <r>    4.0631    1.0000 </r>
       <r>    4.9883    1.0000 </r>
       <r>    5.2202    1.0000 </r>
       <r>    7.1323    0.0000 </r>
       <r>    7.1364    0.0000 </r>
       <r>    7.4106    0.0000 </r>
       <r>    7.7230    0.0000 </r>
       <r>    7.8505    0.0000 </r>
      </set>
      <set comment="kpoint 15">
       <r>  -44.2321    1.0000 </r>
       <r>  -44.2317    1.0000 </r>
       <r>  -44.2281    1.0000 </r>
       <r>  -39.8508    1.0000 </r>
       <r>  -39.8452    1.0000 </r>
       <r>  -39.8446    1.0000 </r>
       <r>   -4.6280    1.0000 </r>
       <r>   -4.6147    1.0000 </r>
       <r>    1.1777    1.0000 </r>
       <r>    1.4216    1.0000 </r>
       <r>    2.3749    1.0000 </r>
       <r>    2.3870    1.0000 </r>
       <r>    2.8657    1.0000 </r>
       <r>    3.0934    1.0000 </r>
       <r>    3.4895    1.0000 </r>
       <r>    3.6311    1.0000 </r>
       <r>    3.6637    1.0000 </r>
       <r>    5.1733    1.0000 </r>
       <r>    5.5317    1.0000 </r>
       <r>    6.9684    0.0000 </r>
       <r>    7.4078    0.0000 </r>
       <r>    7.4455    0.0000 </r>
       <r>    7.9286    0.0000 </r>
       <r>    8.4066    0.0000 </r>
      </set>
     </set>
     <set comment="spin 2">
      <set comment="kpoint 1">
       <r>  -44.2312    1.0000 </r>
       <r>  -44.2312    1.0000 </r>
       <r>  -44.2283    1.0000 </r>
       <r>  -39.8510    1.0000 </r>
       <r>  -39.8440    1.0000 </r>
       <r>  -39.8440    1.0000 </r>
       <r>   -5.9839    1.0000 </r>
       <r>   -4.7649    1.0000 </r>
       <r>    0.6301    1.0000 </r>
       <r>    2.6430    1.0000 </r>
       <r>    2.6430    1.0000 </r>
       <r>    3.2776    1.0000 </r>
       <r>    3.2852    1.0000 </r>
       <r>    3.2852    1.0000 </r>
       <r>    5.1414    1.0000 </r>
       <r>    5.1414    1.0000 </r>
       <r>    5.5874    1.0000 </r>
       <r>    5.5874    1.0000 </r>
       <r>    5.7846    1.0000 </r>
       <r>    7.0796    0.0000 </r>
       <r>    7.0796    0.0000 </r>
       <r>    7.2268    0.0000 </r>
       <r>    8.2388    0.0000 </r>
       <r>    8.3899    0.0000 </r>
      </set>
      <set comment="kpoint 2">
       <r>  -44.2315    1.0000 </r>
       <r>  -44.2313    1.0000 </r>
       <r>  -44.2282    1.0000 </r>
       <r>  -39.8509    1.0000 </r>
       <r>  -39.8445    1.0000 </r>
       <r>  -39.8441    1.0000 </r>
       <r>   -5.6848    1.0000 </r>
       <r>   -4.6543    1.0000 </r>
       <r>    1.0619    1.0000 </r>
       <r>    2.4444    1.0000 </r>
       <r>    2.6899    1.0000 </r>
       <r>    2.8063    1.0000 </r>
       <r>    3.2311    1.0000 </r>
       <r>    3.2535    1.0000 </r>
       <r>    3.8442    1.0000 </r>
       <r>    4.2538    1.0000 </r>
       <r>    4.7229    1.0000 </r>
       <r>    5.4490    1.0000 </r>
       <r>    5.9677    1.0000 </r>
       <r>    6.9420    0.0000 </r>
       <r>    7.3130    0.0000 </r>
       <r>    7.3877    0.0000 </r>
       <r>    7.8794    0.0000 </r>
       <r>    8.2736    0.0000 </r>
      </set>
      <set comment="kpoint 3">
       <r>  -44.2321    1.0000 </r>
       <r>  -44.2314    1.0000 </r>
       <r>  -44.2281    1.0000 </r>
       <r>  -39.8508    1.0000 </r>
       <r>  -39.8453    1.0000 </r>
       <r>  -39.8443    1.0000 </r>
       <r>   -5.0053    1.0000 </r>
       <r>   -4.5449    1.0000 </r>
       <r>    1.0537    1.0000 </r>
       <r>    2.1196    1.0000 </r>
       <r>    2.2836    1.0000 </r>
       <r>    2.6773    1.0000 </r>
       <r>    2.9751    1.0000 </r>
       <r>    3.2684    1.0000 </r>
       <r>    3.3592    1.0000 </r>
       <r>    3.6957    1.0000 </r>
       <r>    4.0197    1.0000 </r>
       <r>    5.0120    1.0000 </r>
       <r>    5.3325    1.0000 </r>
       <r>    6.7439    0.0000 </r>
       <r>    7.4272    0.0000 </r>
       <r>    7.4923    0.0000 </r>
       <r>    7.7399    0.0000 </r>
       <r>    8.4688    0.0000 </r>
      </set>
      <set comment="kpoint 4">
       <r>  -44.2319    1.0000 </r>
       <r>  -44.2315    1.0000 </r>
       <r>  -44.2281    1.0000 </r>
       <r>  -39.8508    1.0000 </r>
       <r>  -39.8450    1.0000 </r>
       <r>  -39.8444    1.0000 </r>
       <r>   -5.1878    1.0000 </r>
       <r>   -4.5293    1.0000 </r>
       <r>    1.6933    1.0000 </r>
       <r>    1.8339    1.0000 </r>
       <r>    2.2358    1.0000 </r>
       <r>    2.5829    1.0000 </r>
       <r>    2.8425    1.0000 </r>
       <r>    3.2716    1.0000 </r>
       <r>    3.3955    1.0000 </r>
       <r>    3.6433    1.0000 </r>
       <r>    4.4885    1.0000 </r>
       <r>    4.7252    1.0000 </r>
       <r>    5.5922    1.0000 </r>
       <r>    7.0970    0.0000 </r>
       <r>    7.4396    0.0000 </r>
       <r>    7.5115    0.0000 </r>
       <r>    7.6137    0.0000 </r>
       <r>    8.0972    0.0000 </r>
      </set>
      <set comment="kpoint 5">
       <r>  -44.2320    1.0000 </r>
       <r>  -44.2316    1.0000 </r>
       <r>  -44.2281    1.0000 </r>
       <r>  -39.8507    1.0000 </r>
       <r>  -39.8452    1.0000 </r>
       <r>  -39.8446    1.0000 </r>
       <r>   -4.7016    1.0000 </r>
       <r>   -4.5573    1.0000 </r>
       <r>    0.9066    1.0000 </r>
       <r>    2.1049    1.0000 </r>
       <r>    2.4034    1.0000 </r>
       <r>    2.6329    1.0000 </r>
       <r>    2.6992    1.0000 </r>
       <r>    2.9778    1.0000 </r>
       <r>    3.4718    1.0000 </r>
       <r>    3.7003    1.0000 </r>
       <r>    3.9571    1.0000 </r>
       <r>    4.7380    1.0000 </r>
       <r>    4.7532    1.0000 </r>
       <r>    6.9602    0.0000 </r>
       <r>    7.3928    0.0000 </r>
       <r>    7.4483    0.0000 </r>
       <r>    7.6979    0.0000 </r>
       <r>    7.7758    0.0000 </r>
      </set>
      <set comment="kpoint 6">
       <r>  -44.2312    1.0000 </r>
       <r>  -44.2312    1.0000 </r>
       <r>  -44.2283    1.0000 </r>
       <r>  -39.8510    1.0000 </r>
       <r>  -39.8440    1.0000 </r>
       <r>  -39.8440    1.0000 </r>
       <r>   -5.8462    1.0000 </r>
       <r>   -5.0015    1.0000 </r>
       <r>    1.1552    1.0000 </r>
       <r>    2.6841    1.0000 </r>
       <r>    2.6841    1.0000 </r>
       <r>    3.2448    1.0000 </r>
       <r>    3.2888    1.0000 </r>
       <r>    3.2888    1.0000 </r>
       <r>    4.6596    1.0000 </r>
       <r>    4.7404    1.0000 </r>
       <r>    4.7404    1.0000 </r>
       <r>    6.0659    1.0000 </r>
       <r>    6.0659    1.0000 </r>
       <r>    7.0567    0.0000 </r>
       <r>    7.0567    0.0000 </r>
       <r>    7.0801    0.0000 </r>
       <r>    8.2947    0.0000 </r>
       <r>    8.2947    0.0000 </r>
      </set>
      <set comment="kpoint 7">
       <r>  -44.2315    1.0000 </r>
       <r>  -44.2313    1.0000 </r>
       <r>  -44.2282    1.0000 </r>
       <r>  -39.8509    1.0000 </r>
       <r>  -39.8445    1.0000 </r>
       <r>  -39.8441    1.0000 </r>
       <r>   -5.5633    1.0000 </r>
       <r>   -4.8419    1.0000 </r>
       <r>    1.3698    1.0000 </r>
       <r>    2.4866    1.0000 </r>
       <r>    2.6936    1.0000 </r>
       <r>    2.6998    1.0000 </r>
       <r>    3.2310    1.0000 </r>
       <r>    3.2660    1.0000 </r>
       <r>    3.7591    1.0000 </r>
       <r>    4.7584    1.0000 </r>
       <r>    4.8252    1.0000 </r>
       <r>    5.1203    1.0000 </r>
       <r>    5.2639    1.0000 </r>
       <r>    6.8322    0.0000 </r>
       <r>    7.2443    0.0000 </r>
       <r>    7.3826    0.0000 </r>
       <r>    7.8273    0.0000 </r>
       <r>    8.2574    0.0000 </r>
      </set>
      <set comment="kpoint 8">
       <r>  -44.2321    1.0000 </r>
       <r>  -44.2314    1.0000 </r>
       <r>  -44.2281    1.0000 </r>
       <r>  -39.8508    1.0000 </r>
       <r>  -39.8452    1.0000 </r>
       <r>  -39.8443    1.0000 </r>
       <r>   -4.9454    1.0000 </r>
       <r>   -4.6059    1.0000 </r>
       <r>    0.9858    1.0000 </r>
       <r>    1.6081    1.0000 </r>
       <r>    2.6281    1.0000 </r>
       <r>    2.6583    1.0000 </r>
       <r>    3.2251    1.0000 </r>
       <r>    3.3696    1.0000 </r>
       <r>    3.3994    1.0000 </r>
       <r>    4.0094    1.0000 </r>
       <r>    4.0930    1.0000 </r>
       <r>    4.7585    1.0000 </r>
       <r>    5.2857    1.0000 </r>
       <r>    6.6640    0.0000 </r>
       <r>    7.4490    0.0000 </r>
       <r>    7.4648    0.0000 </r>
       <r>    8.0477    0.0000 </r>
       <r>    8.0933    0.0000 </r>
      </set>
      <set comment="kpoint 9">
       <r>  -44.2319    1.0000 </r>
       <r>  -44.2315    1.0000 </r>
       <r>  -44.2281    1.0000 </r>
       <r>  -39.8508    1.0000 </r>
       <r>  -39.8450    1.0000 </r>
       <r>  -39.8444    1.0000 </r>
       <r>   -5.1008    1.0000 </r>
       <r>   -4.6364    1.0000 </r>
       <r>    1.6022    1.0000 </r>
       <r>    1.6611    1.0000 </r>
       <r>    2.5792    1.0000 </r>
       <r>    2.6358    1.0000 </r>
       <r>    2.8442    1.0000 </r>
       <r>    3.3313    1.0000 </r>
       <r>    3.4305    1.0000 </r>
       <r>    3.7732    1.0000 </r>
       <r>    4.1707    1.0000 </r>
       <r>    4.8001    1.0000 </r>
       <r>    5.5149    1.0000 </r>
       <r>    7.1126    0.0000 </r>
       <r>    7.3089    0.0000 </r>
       <r>    7.4626    0.0000 </r>
       <r>    7.6036    0.0000 </r>
       <r>    8.0740    0.0000 </r>
      </set>
      <set comment="kpoint 10">
       <r>  -44.2321    1.0000 </r>
       <r>  -44.2317    1.0000 </r>
       <r>  -44.2281    1.0000 </r>
       <r>  -39.8507    1.0000 </r>
       <r>  -39.8452    1.0000 </r>
       <r>  -39.8446    1.0000 </r>
       <r>   -4.6768    1.0000 </r>
       <r>   -4.5739    1.0000 </r>
       <r>    0.9943    1.0000 </r>
       <r>    1.7825    1.0000 </r>
       <r>    2.3173    1.0000 </r>
       <r>    2.5815    1.0000 </r>
       <r>    2.7810    1.0000 </r>
       <r>    3.0372    1.0000 </r>
       <r>    3.4881    1.0000 </r>
       <r>    3.6203    1.0000 </r>
       <r>    3.8866    1.0000 </r>
       <r>    4.8647    1.0000 </r>
       <r>    5.1978    1.0000 </r>
       <r>    6.9590    0.0000 </r>
       <r>    7.4010    0.0000 </r>
       <r>    7.4749    0.0000 </r>
       <r>    7.6907    0.0000 </r>
       <r>    7.9097    0.0000 </r>
      </set>
      <set comment="kpoint 11">
       <r>  -44.2312    1.0000 </r>
       <r>  -44.2312    1.0000 </r>
       <r>  -44.2283    1.0000 </r>
       <r>  -39.8510    1.0000 </r>
       <r>  -39.8440    1.0000 </r>
       <r>  -39.8440    1.0000 </r>
       <r>   -5.4922    1.0000 </r>
       <r>   -5.4464    1.0000 </r>
       <r>    2.1471    1.0000 </r>
       <r>    2.7294    1.0000 </r>
       <r>    2.7294    1.0000 </r>
       <r>    2.7733    1.0000 </r>
       <r>    3.2928    1.0000 </r>
       <r>    3.2928    1.0000 </r>
       <r>    3.7872    1.0000 </r>
       <r>    4.5082    1.0000 </r>
       <r>    4.5082    1.0000 </r>
       <r>    6.4067    0.9950 </r>
       <r>    6.4067    0.9950 </r>
       <r>    6.9469    0.0000 </r>
       <r>    7.0130    0.0000 </r>
       <r>    7.0130    0.0000 </r>
       <r>    8.1869    0.0000 </r>
       <r>    8.1869    0.0000 </r>
      </set>
      <set comment="kpoint 12">
       <r>  -44.2316    1.0000 </r>
       <r>  -44.2313    1.0000 </r>
       <r>  -44.2282    1.0000 </r>
       <r>  -39.8509    1.0000 </r>
       <r>  -39.8445    1.0000 </r>
       <r>  -39.8441    1.0000 </r>
       <r>   -5.2507    1.0000 </r>
       <r>   -5.2183    1.0000 </r>
       <r>    1.9742    1.0000 </r>
       <r>    2.1164    1.0000 </r>
       <r>    2.7535    1.0000 </r>
       <r>    2.8249    1.0000 </r>
       <r>    3.2191    1.0000 </r>
       <r>    3.3239    1.0000 </r>
       <r>    3.6636    1.0000 </r>
       <r>    4.4495    1.0000 </r>
       <r>    4.4819    1.0000 </r>
       <r>    4.9686    1.0000 </r>
       <r>    5.7471    1.0000 </r>
       <r>    6.8327    0.0000 </r>
       <r>    7.2697    0.0000 </r>
       <r>    7.4447    0.0000 </r>
       <r>    7.6213    0.0000 </r>
       <r>    7.9020    0.0000 </r>
      </set>
      <set comment="kpoint 13">
       <r>  -44.2321    1.0000 </r>
       <r>  -44.2314    1.0000 </r>
       <r>  -44.2281    1.0000 </r>
       <r>  -39.8508    1.0000 </r>
       <r>  -39.8453    1.0000 </r>
       <r>  -39.8443    1.0000 </r>
       <r>   -4.7875    1.0000 </r>
       <r>   -4.7688    1.0000 </r>
       <r>    1.0902    1.0000 </r>
       <r>    1.2956    1.0000 </r>
       <r>    2.6704    1.0000 </r>
       <r>    2.6847    1.0000 </r>
       <r>    3.2538    1.0000 </r>
       <r>    3.3690    1.0000 </r>
       <r>    3.4464    1.0000 </r>
       <r>    3.9537    1.0000 </r>
       <r>    4.0298    1.0000 </r>
       <r>    5.4220    1.0000 </r>
       <r>    5.4585    1.0000 </r>
       <r>    6.6016    0.0017 </r>
       <r>    7.3941    0.0000 </r>
       <r>    7.4254    0.0000 </r>
       <r>    7.7451    0.0000 </r>
       <r>    7.7997    0.0000 </r>
      </set>
      <set comment="kpoint 14">
       <r>  -44.2319    1.0000 </r>
       <r>  -44.2315    1.0000 </r>
       <r>  -44.2281    1.0000 </r>
       <r>  -39.8508    1.0000 </r>
       <r>  -39.8450    1.0000 </r>
       <r>  -39.8444    1.0000 </r>
       <r>   -4.8835    1.0000 </r>
       <r>   -4.8738    1.0000 </r>
       <r>    1.5545    1.0000 </r>
       <r>    1.5676    1.0000 </r>
       <r>    2.7176    1.0000 </r>
       <r>    2.7793    1.0000 </r>
       <r>    2.7827    1.0000 </r>
       <r>    3.4270    1.0000 </r>
       <r>    3.4467    1.0000 </r>
       <r>    3.8663    1.0000 </r>
       <r>    4.0631    1.0000 </r>
       <r>    4.9883    1.0000 </r>
       <r>    5.2202    1.0000 </r>
       <r>    7.1323    0.0000 </r>
       <r>    7.1364    0.0000 </r>
       <r>    7.4106    0.0000 </r>
       <r>    7.7230    0.0000 </r>
       <r>    7.8505    0.0000 </r>
      </set>
      <set comment="kpoint 15">
       <r>  -44.2321    1.0000 </r>
       <r>  -44.2317    1.0000 </r>
       <r>  -44.2281    1.0000 </r>
       <r>  -39.8508    1.0000 </r>
       <r>  -39.8452    1.0000 </r>
       <r>  -39.8446    1.0000 </r>
       <r>   -4.6280    1.0000 </r>
       <r>   -4.6147    1.0000 </r>
       <r>    1.1777    1.0000 </r>
       <r>    1.4216    1.0000 </r>
       <r>    2.3749    1.0000 </r>
       <r>    2.3870    1.0000 </r>
       <r>    2.8657    1.0000 </r>
       <r>    3.0934    1.0000 </r>
       <r>    3.4895    1.0000 </r>
       <r>    3.6311    1.0000 </r>
       <r>    3.6637    1.0000 </r>
       <r>    5.1733    1.0000 </r>
       <r>    5.5317    1.0000 </r>
       <r>    6.9684    0.0000 </r>
       <r>    7.4078    0.0000 </r>
       <r>    7.4455    0.0000 </r>
       <r>    7.9286    0.0000 </r>
       <r>    8.4066    0.0000 </r>
      </set>
     </set>
    </set>
   </array>
  </eigenvalues>
  <separator name="orbital magnetization" >
   <v name="MAGDIPOLOUT">      0.00000000      0.00000000      0.00000000</v>
  </separator>
  <dos>
   <i name="efermi">      6.49777967 </i>
   <total>
    <array>
     <dimension dim="1">gridpoints</dimension>
     <dimension dim="2">spin</dimension>
     <field>energy</field>
     <field>total</field>
     <field>integrated</field>
     <set>
      <set comment="spin 1">
       <r>   -46.8671     0.0000     0.0000 </r>
       <r>   -46.6739     0.0000     0.0000 </r>
       <r>   -46.4806     0.0000     0.0000 </r>
       <r>   -46.2874     0.0000     0.0000 </r>
       <r>   -46.0942     0.0000     0.0000 </r>
       <r>   -45.9009     0.0000     0.0000 </r>
       <r>   -45.7077     0.0000     0.0000 </r>
       <r>   -45.5145     0.0000     0.0000 </r>
       <r>   -45.3212     0.0000     0.0000 </r>
       <r>   -45.1280     0.0000     0.0000 </r>
       <r>   -44.9348     0.0000     0.0000 </r>
       <r>   -44.7415     0.0000     0.0000 </r>
       <r>   -44.5483     0.0000     0.0000 </r>
       <r>   -44.3550     0.0034     0.0006 </r>
       <r>   -44.1618    15.1154     2.9215 </r>
       <r>   -43.9686     0.4063     3.0000 </r>
       <r>   -43.7753     0.0000     3.0000 </r>
       <r>   -43.5821     0.0000     3.0000 </r>
       <r>   -43.3889     0.0000     3.0000 </r>
       <r>   -43.1956     0.0000     3.0000 </r>
       <r>   -43.0024     0.0000     3.0000 </r>
       <r>   -42.8092     0.0000     3.0000 </r>
       <r>   -42.6159     0.0000     3.0000 </r>
       <r>   -42.4227     0.0000     3.0000 </r>
       <r>   -42.2294     0.0000     3.0000 </r>
       <r>   -42.0362     0.0000     3.0000 </r>
       <r>   -41.8430     0.0000     3.0000 </r>
       <r>   -41.6497     0.0000     3.0000 </r>
       <r>   -41.4565     0.0000     3.0000 </r>
       <r>   -41.2633     0.0000     3.0000 </r>
       <r>   -41.0700     0.0000     3.0000 </r>
       <r>   -40.8768     0.0000     3.0000 </r>
       <r>   -40.6836     0.0000     3.0000 </r>
       <r>   -40.4903     0.0000     3.0000 </r>
       <r>   -40.2971     0.0000     3.0000 </r>
       <r>   -40.1038     0.0000     3.0000 </r>
       <r>   -39.9106     0.5562     3.1075 </r>
       <r>   -39.7174    14.9668     5.9996 </r>
       <r>   -39.5241     0.0021     6.0000 </r>
       <r>   -39.3309     0.0000     6.0000 </r>
       <r>   -39.1377     0.0000     6.0000 </r>
       <r>   -38.9444     0.0000     6.0000 </r>
       <r>   -38.7512     0.0000     6.0000 </r>
       <r>   -38.5580     0.0000     6.0000 </r>
       <r>   -38.3647     0.0000     6.0000 </r>
       <r>   -38.1715     0.0000     6.0000 </r>
       <r>   -37.9782     0.0000     6.0000 </r>
       <r>   -37.7850     0.0000     6.0000 </r>
       <r>   -37.5918     0.0000     6.0000 </r>
       <r>   -37.3985     0.0000     6.0000 </r>
       <r>   -37.2053     0.0000     6.0000 </r>
       <r>   -37.0121     0.0000     6.0000 </r>
       <r>   -36.8188     0.0000     6.0000 </r>
       <r>   -36.6256     0.0000     6.0000 </r>
       <r>   -36.4324     0.0000     6.0000 </r>
       <r>   -36.2391     0.0000     6.0000 </r>
       <r>   -36.0459     0.0000     6.0000 </r>
       <r>   -35.8526     0.0000     6.0000 </r>
       <r>   -35.6594     0.0000     6.0000 </r>
       <r>   -35.4662     0.0000     6.0000 </r>
       <r>   -35.2729     0.0000     6.0000 </r>
       <r>   -35.0797     0.0000     6.0000 </r>
       <r>   -34.8865     0.0000     6.0000 </r>
       <r>   -34.6932     0.0000     6.0000 </r>
       <r>   -34.5000     0.0000     6.0000 </r>
       <r>   -34.3068     0.0000     6.0000 </r>
       <r>   -34.1135     0.0000     6.0000 </r>
       <r>   -33.9203     0.0000     6.0000 </r>
       <r>   -33.7270     0.0000     6.0000 </r>
       <r>   -33.5338     0.0000     6.0000 </r>
       <r>   -33.3406     0.0000     6.0000 </r>
       <r>   -33.1473     0.0000     6.0000 </r>
       <r>   -32.9541     0.0000     6.0000 </r>
       <r>   -32.7609     0.0000     6.0000 </r>
       <r>   -32.5676     0.0000     6.0000 </r>
       <r>   -32.3744     0.0000     6.0000 </r>
       <r>   -32.1812     0.0000     6.0000 </r>
       <r>   -31.9879     0.0000     6.0000 </r>
       <r>   -31.7947     0.0000     6.0000 </r>
       <r>   -31.6014     0.0000     6.0000 </r>
       <r>   -31.4082     0.0000     6.0000 </r>
       <r>   -31.2150     0.0000     6.0000 </r>
       <r>   -31.0217     0.0000     6.0000 </r>
       <r>   -30.8285     0.0000     6.0000 </r>
       <r>   -30.6353     0.0000     6.0000 </r>
       <r>   -30.4420     0.0000     6.0000 </r>
       <r>   -30.2488     0.0000     6.0000 </r>
       <r>   -30.0556     0.0000     6.0000 </r>
       <r>   -29.8623     0.0000     6.0000 </r>
       <r>   -29.6691     0.0000     6.0000 </r>
       <r>   -29.4758     0.0000     6.0000 </r>
       <r>   -29.2826     0.0000     6.0000 </r>
       <r>   -29.0894     0.0000     6.0000 </r>
       <r>   -28.8961     0.0000     6.0000 </r>
       <r>   -28.7029     0.0000     6.0000 </r>
       <r>   -28.5097     0.0000     6.0000 </r>
       <r>   -28.3164     0.0000     6.0000 </r>
       <r>   -28.1232     0.0000     6.0000 </r>
       <r>   -27.9300     0.0000     6.0000 </r>
       <r>   -27.7367     0.0000     6.0000 </r>
       <r>   -27.5435     0.0000     6.0000 </r>
       <r>   -27.3502     0.0000     6.0000 </r>
       <r>   -27.1570     0.0000     6.0000 </r>
       <r>   -26.9638     0.0000     6.0000 </r>
       <r>   -26.7705     0.0000     6.0000 </r>
       <r>   -26.5773     0.0000     6.0000 </r>
       <r>   -26.3841     0.0000     6.0000 </r>
       <r>   -26.1908     0.0000     6.0000 </r>
       <r>   -25.9976     0.0000     6.0000 </r>
       <r>   -25.8044     0.0000     6.0000 </r>
       <r>   -25.6111     0.0000     6.0000 </r>
       <r>   -25.4179     0.0000     6.0000 </r>
       <r>   -25.2246     0.0000     6.0000 </r>
       <r>   -25.0314     0.0000     6.0000 </r>
       <r>   -24.8382     0.0000     6.0000 </r>
       <r>   -24.6449     0.0000     6.0000 </r>
       <r>   -24.4517     0.0000     6.0000 </r>
       <r>   -24.2585     0.0000     6.0000 </r>
       <r>   -24.0652     0.0000     6.0000 </r>
       <r>   -23.8720     0.0000     6.0000 </r>
       <r>   -23.6788     0.0000     6.0000 </r>
       <r>   -23.4855     0.0000     6.0000 </r>
       <r>   -23.2923     0.0000     6.0000 </r>
       <r>   -23.0990     0.0000     6.0000 </r>
       <r>   -22.9058     0.0000     6.0000 </r>
       <r>   -22.7126     0.0000     6.0000 </r>
       <r>   -22.5193     0.0000     6.0000 </r>
       <r>   -22.3261     0.0000     6.0000 </r>
       <r>   -22.1329     0.0000     6.0000 </r>
       <r>   -21.9396     0.0000     6.0000 </r>
       <r>   -21.7464     0.0000     6.0000 </r>
       <r>   -21.5532     0.0000     6.0000 </r>
       <r>   -21.3599     0.0000     6.0000 </r>
       <r>   -21.1667     0.0000     6.0000 </r>
       <r>   -20.9734     0.0000     6.0000 </r>
       <r>   -20.7802     0.0000     6.0000 </r>
       <r>   -20.5870     0.0000     6.0000 </r>
       <r>   -20.3937     0.0000     6.0000 </r>
       <r>   -20.2005     0.0000     6.0000 </r>
       <r>   -20.0073     0.0000     6.0000 </r>
       <r>   -19.8140     0.0000     6.0000 </r>
       <r>   -19.6208     0.0000     6.0000 </r>
       <r>   -19.4276     0.0000     6.0000 </r>
       <r>   -19.2343     0.0000     6.0000 </r>
       <r>   -19.0411     0.0000     6.0000 </r>
       <r>   -18.8478     0.0000     6.0000 </r>
       <r>   -18.6546     0.0000     6.0000 </r>
       <r>   -18.4614     0.0000     6.0000 </r>
       <r>   -18.2681     0.0000     6.0000 </r>
       <r>   -18.0749     0.0000     6.0000 </r>
       <r>   -17.8817     0.0000     6.0000 </r>
       <r>   -17.6884     0.0000     6.0000 </r>
       <r>   -17.4952     0.0000     6.0000 </r>
       <r>   -17.3020     0.0000     6.0000 </r>
       <r>   -17.1087     0.0000     6.0000 </r>
       <r>   -16.9155     0.0000     6.0000 </r>
       <r>   -16.7222     0.0000     6.0000 </r>
       <r>   -16.5290     0.0000     6.0000 </r>
       <r>   -16.3358     0.0000     6.0000 </r>
       <r>   -16.1425     0.0000     6.0000 </r>
       <r>   -15.9493     0.0000     6.0000 </r>
       <r>   -15.7561     0.0000     6.0000 </r>
       <r>   -15.5628     0.0000     6.0000 </r>
       <r>   -15.3696     0.0000     6.0000 </r>
       <r>   -15.1764     0.0000     6.0000 </r>
       <r>   -14.9831     0.0000     6.0000 </r>
       <r>   -14.7899     0.0000     6.0000 </r>
       <r>   -14.5966     0.0000     6.0000 </r>
       <r>   -14.4034     0.0000     6.0000 </r>
       <r>   -14.2102     0.0000     6.0000 </r>
       <r>   -14.0169     0.0000     6.0000 </r>
       <r>   -13.8237     0.0000     6.0000 </r>
       <r>   -13.6305     0.0000     6.0000 </r>
       <r>   -13.4372     0.0000     6.0000 </r>
       <r>   -13.2440     0.0000     6.0000 </r>
       <r>   -13.0508     0.0000     6.0000 </r>
       <r>   -12.8575     0.0000     6.0000 </r>
       <r>   -12.6643     0.0000     6.0000 </r>
       <r>   -12.4710     0.0000     6.0000 </r>
       <r>   -12.2778     0.0000     6.0000 </r>
       <r>   -12.0846     0.0000     6.0000 </r>
       <r>   -11.8913     0.0000     6.0000 </r>
       <r>   -11.6981     0.0000     6.0000 </r>
       <r>   -11.5049     0.0000     6.0000 </r>
       <r>   -11.3116     0.0000     6.0000 </r>
       <r>   -11.1184     0.0000     6.0000 </r>
       <r>   -10.9252     0.0000     6.0000 </r>
       <r>   -10.7319     0.0000     6.0000 </r>
       <r>   -10.5387     0.0000     6.0000 </r>
       <r>   -10.3454     0.0000     6.0000 </r>
       <r>   -10.1522     0.0000     6.0000 </r>
       <r>    -9.9590     0.0000     6.0000 </r>
       <r>    -9.7657     0.0000     6.0000 </r>
       <r>    -9.5725     0.0000     6.0000 </r>
       <r>    -9.3793     0.0000     6.0000 </r>
       <r>    -9.1860     0.0000     6.0000 </r>
       <r>    -8.9928     0.0000     6.0000 </r>
       <r>    -8.7996     0.0000     6.0000 </r>
       <r>    -8.6063     0.0000     6.0000 </r>
       <r>    -8.4131     0.0000     6.0000 </r>
       <r>    -8.2198     0.0000     6.0000 </r>
       <r>    -8.0266     0.0000     6.0000 </r>
       <r>    -7.8334     0.0000     6.0000 </r>
       <r>    -7.6401     0.0000     6.0000 </r>
       <r>    -7.4469     0.0000     6.0000 </r>
       <r>    -7.2537     0.0000     6.0000 </r>
       <r>    -7.0604     0.0000     6.0000 </r>
       <r>    -6.8672     0.0000     6.0000 </r>
       <r>    -6.6739     0.0000     6.0000 </r>
       <r>    -6.4807     0.0000     6.0000 </r>
       <r>    -6.2875     0.0000     6.0000 </r>
       <r>    -6.0942     0.0000     6.0000 </r>
       <r>    -5.9010     0.0575     6.0111 </r>
       <r>    -5.7078     0.1779     6.0455 </r>
       <r>    -5.5145     0.8099     6.2020 </r>
       <r>    -5.3213     0.1526     6.2315 </r>
       <r>    -5.1281     1.0449     6.4334 </r>
       <r>    -4.9348     1.2472     6.6744 </r>
       <r>    -4.7416     2.1539     7.0906 </r>
       <r>    -4.5483     4.0200     7.8674 </r>
       <r>    -4.3551     0.6862     8.0000 </r>
       <r>    -4.1619     0.0000     8.0000 </r>
       <r>    -3.9686     0.0000     8.0000 </r>
       <r>    -3.7754     0.0000     8.0000 </r>
       <r>    -3.5822     0.0000     8.0000 </r>
       <r>    -3.3889     0.0000     8.0000 </r>
       <r>    -3.1957     0.0000     8.0000 </r>
       <r>    -3.0025     0.0000     8.0000 </r>
       <r>    -2.8092     0.0000     8.0000 </r>
       <r>    -2.6160     0.0000     8.0000 </r>
       <r>    -2.4227     0.0000     8.0000 </r>
       <r>    -2.2295     0.0000     8.0000 </r>
       <r>    -2.0363     0.0000     8.0000 </r>
       <r>    -1.8430     0.0000     8.0000 </r>
       <r>    -1.6498     0.0000     8.0000 </r>
       <r>    -1.4566     0.0000     8.0000 </r>
       <r>    -1.2633     0.0000     8.0000 </r>
       <r>    -1.0701     0.0000     8.0000 </r>
       <r>    -0.8769     0.0000     8.0000 </r>
       <r>    -0.6836     0.0000     8.0000 </r>
       <r>    -0.4904     0.0000     8.0000 </r>
       <r>    -0.2971     0.0000     8.0000 </r>
       <r>    -0.1039     0.0000     8.0000 </r>
       <r>     0.0893     0.0000     8.0000 </r>
       <r>     0.2826     0.0000     8.0000 </r>
       <r>     0.4758     0.0000     8.0000 </r>
       <r>     0.6690     0.0447     8.0086 </r>
       <r>     0.8623     0.0396     8.0163 </r>
       <r>     1.0555     1.4278     8.2922 </r>
       <r>     1.2487     1.4590     8.5741 </r>
       <r>     1.4420     1.0412     8.7753 </r>
       <r>     1.6352     1.5678     9.0783 </r>
       <r>     1.8285     2.1032     9.4847 </r>
       <r>     2.0217     0.5220     9.5856 </r>
       <r>     2.2149     1.0978     9.7977 </r>
       <r>     2.4082     1.9511    10.1747 </r>
       <r>     2.6014     2.3921    10.6370 </r>
       <r>     2.7946     6.7059    11.9328 </r>
       <r>     2.9879     3.6878    12.6454 </r>
       <r>     3.1811     1.3331    12.9030 </r>
       <r>     3.3743     5.8524    14.0339 </r>
       <r>     3.5676     3.6773    14.7445 </r>
       <r>     3.7608     3.8138    15.4815 </r>
       <r>     3.9541     2.2392    15.9142 </r>
       <r>     4.1473     2.0137    16.3033 </r>
       <r>     4.3405     1.1794    16.5312 </r>
       <r>     4.5338     1.5691    16.8344 </r>
       <r>     4.7270     0.7858    16.9863 </r>
       <r>     4.9202     2.0895    17.3900 </r>
       <r>     5.1135     0.9726    17.5780 </r>
       <r>     5.3067     1.3739    17.8435 </r>
       <r>     5.4999     1.7341    18.1786 </r>
       <r>     5.6932     1.4711    18.4628 </r>
       <r>     5.8864     1.8752    18.8252 </r>
       <r>     6.0797     0.7287    18.9660 </r>
       <r>     6.2729     0.0724    18.9800 </r>
       <r>     6.4661     0.0987    18.9991 </r>
       <r>     6.6594     0.5905    19.1132 </r>
       <r>     6.8526     0.8845    19.2841 </r>
       <r>     7.0458     2.5385    19.7746 </r>
       <r>     7.2391     1.9572    20.1528 </r>
       <r>     7.4323     6.2515    21.3609 </r>
       <r>     7.6255     4.4461    22.2200 </r>
       <r>     7.8188     3.7692    22.9484 </r>
       <r>     8.0120     2.7067    23.4714 </r>
       <r>     8.2053     1.4801    23.7574 </r>
       <r>     8.3985     0.7475    23.9019 </r>
       <r>     8.5917     0.5078    24.0000 </r>
       <r>     8.7850     0.0001    24.0000 </r>
       <r>     8.9782     0.0000    24.0000 </r>
       <r>     9.1714     0.0000    24.0000 </r>
       <r>     9.3647     0.0000    24.0000 </r>
       <r>     9.5579     0.0000    24.0000 </r>
       <r>     9.7511     0.0000    24.0000 </r>
       <r>     9.9444     0.0000    24.0000 </r>
       <r>    10.1376     0.0000    24.0000 </r>
       <r>    10.3309     0.0000    24.0000 </r>
       <r>    10.5241     0.0000    24.0000 </r>
       <r>    10.7173     0.0000    24.0000 </r>
       <r>    10.9106     0.0000    24.0000 </r>
       <r>    11.1038     0.0000    24.0000 </r>
      </set>
      <set comment="spin 2">
       <r>   -46.8671     0.0000     0.0000 </r>
       <r>   -46.6739     0.0000     0.0000 </r>
       <r>   -46.4806     0.0000     0.0000 </r>
       <r>   -46.2874     0.0000     0.0000 </r>
       <r>   -46.0942     0.0000     0.0000 </r>
       <r>   -45.9009     0.0000     0.0000 </r>
       <r>   -45.7077     0.0000     0.0000 </r>
       <r>   -45.5145     0.0000     0.0000 </r>
       <r>   -45.3212     0.0000     0.0000 </r>
       <r>   -45.1280     0.0000     0.0000 </r>
       <r>   -44.9348     0.0000     0.0000 </r>
       <r>   -44.7415     0.0000     0.0000 </r>
       <r>   -44.5483     0.0000     0.0000 </r>
       <r>   -44.3550     0.0034     0.0006 </r>
       <r>   -44.1618    15.1154     2.9215 </r>
       <r>   -43.9686     0.4063     3.0000 </r>
       <r>   -43.7753     0.0000     3.0000 </r>
       <r>   -43.5821     0.0000     3.0000 </r>
       <r>   -43.3889     0.0000     3.0000 </r>
       <r>   -43.1956     0.0000     3.0000 </r>
       <r>   -43.0024     0.0000     3.0000 </r>
       <r>   -42.8092     0.0000     3.0000 </r>
       <r>   -42.6159     0.0000     3.0000 </r>
       <r>   -42.4227     0.0000     3.0000 </r>
       <r>   -42.2294     0.0000     3.0000 </r>
       <r>   -42.0362     0.0000     3.0000 </r>
       <r>   -41.8430     0.0000     3.0000 </r>
       <r>   -41.6497     0.0000     3.0000 </r>
       <r>   -41.4565     0.0000     3.0000 </r>
       <r>   -41.2633     0.0000     3.0000 </r>
       <r>   -41.0700     0.0000     3.0000 </r>
       <r>   -40.8768     0.0000     3.0000 </r>
       <r>   -40.6836     0.0000     3.0000 </r>
       <r>   -40.4903     0.0000     3.0000 </r>
       <r>   -40.2971     0.0000     3.0000 </r>
       <r>   -40.1038     0.0000     3.0000 </r>
       <r>   -39.9106     0.5561     3.1075 </r>
       <r>   -39.7174    14.9668     5.9996 </r>
       <r>   -39.5241     0.0021     6.0000 </r>
       <r>   -39.3309     0.0000     6.0000 </r>
       <r>   -39.1377     0.0000     6.0000 </r>
       <r>   -38.9444     0.0000     6.0000 </r>
       <r>   -38.7512     0.0000     6.0000 </r>
       <r>   -38.5580     0.0000     6.0000 </r>
       <r>   -38.3647     0.0000     6.0000 </r>
       <r>   -38.1715     0.0000     6.0000 </r>
       <r>   -37.9782     0.0000     6.0000 </r>
       <r>   -37.7850     0.0000     6.0000 </r>
       <r>   -37.5918     0.0000     6.0000 </r>
       <r>   -37.3985     0.0000     6.0000 </r>
       <r>   -37.2053     0.0000     6.0000 </r>
       <r>   -37.0121     0.0000     6.0000 </r>
       <r>   -36.8188     0.0000     6.0000 </r>
       <r>   -36.6256     0.0000     6.0000 </r>
       <r>   -36.4324     0.0000     6.0000 </r>
       <r>   -36.2391     0.0000     6.0000 </r>
       <r>   -36.0459     0.0000     6.0000 </r>
       <r>   -35.8526     0.0000     6.0000 </r>
       <r>   -35.6594     0.0000     6.0000 </r>
       <r>   -35.4662     0.0000     6.0000 </r>
       <r>   -35.2729     0.0000     6.0000 </r>
       <r>   -35.0797     0.0000     6.0000 </r>
       <r>   -34.8865     0.0000     6.0000 </r>
       <r>   -34.6932     0.0000     6.0000 </r>
       <r>   -34.5000     0.0000     6.0000 </r>
       <r>   -34.3068     0.0000     6.0000 </r>
       <r>   -34.1135     0.0000     6.0000 </r>
       <r>   -33.9203     0.0000     6.0000 </r>
       <r>   -33.7270     0.0000     6.0000 </r>
       <r>   -33.5338     0.0000     6.0000 </r>
       <r>   -33.3406     0.0000     6.0000 </r>
       <r>   -33.1473     0.0000     6.0000 </r>
       <r>   -32.9541     0.0000     6.0000 </r>
       <r>   -32.7609     0.0000     6.0000 </r>
       <r>   -32.5676     0.0000     6.0000 </r>
       <r>   -32.3744     0.0000     6.0000 </r>
       <r>   -32.1812     0.0000     6.0000 </r>
       <r>   -31.9879     0.0000     6.0000 </r>
       <r>   -31.7947     0.0000     6.0000 </r>
       <r>   -31.6014     0.0000     6.0000 </r>
       <r>   -31.4082     0.0000     6.0000 </r>
       <r>   -31.2150     0.0000     6.0000 </r>
       <r>   -31.0217     0.0000     6.0000 </r>
       <r>   -30.8285     0.0000     6.0000 </r>
       <r>   -30.6353     0.0000     6.0000 </r>
       <r>   -30.4420     0.0000     6.0000 </r>
       <r>   -30.2488     0.0000     6.0000 </r>
       <r>   -30.0556     0.0000     6.0000 </r>
       <r>   -29.8623     0.0000     6.0000 </r>
       <r>   -29.6691     0.0000     6.0000 </r>
       <r>   -29.4758     0.0000     6.0000 </r>
       <r>   -29.2826     0.0000     6.0000 </r>
       <r>   -29.0894     0.0000     6.0000 </r>
       <r>   -28.8961     0.0000     6.0000 </r>
       <r>   -28.7029     0.0000     6.0000 </r>
       <r>   -28.5097     0.0000     6.0000 </r>
       <r>   -28.3164     0.0000     6.0000 </r>
       <r>   -28.1232     0.0000     6.0000 </r>
       <r>   -27.9300     0.0000     6.0000 </r>
       <r>   -27.7367     0.0000     6.0000 </r>
       <r>   -27.5435     0.0000     6.0000 </r>
       <r>   -27.3502     0.0000     6.0000 </r>
       <r>   -27.1570     0.0000     6.0000 </r>
       <r>   -26.9638     0.0000     6.0000 </r>
       <r>   -26.7705     0.0000     6.0000 </r>
       <r>   -26.5773     0.0000     6.0000 </r>
       <r>   -26.3841     0.0000     6.0000 </r>
       <r>   -26.1908     0.0000     6.0000 </r>
       <r>   -25.9976     0.0000     6.0000 </r>
       <r>   -25.8044     0.0000     6.0000 </r>
       <r>   -25.6111     0.0000     6.0000 </r>
       <r>   -25.4179     0.0000     6.0000 </r>
       <r>   -25.2246     0.0000     6.0000 </r>
       <r>   -25.0314     0.0000     6.0000 </r>
       <r>   -24.8382     0.0000     6.0000 </r>
       <r>   -24.6449     0.0000     6.0000 </r>
       <r>   -24.4517     0.0000     6.0000 </r>
       <r>   -24.2585     0.0000     6.0000 </r>
       <r>   -24.0652     0.0000     6.0000 </r>
       <r>   -23.8720     0.0000     6.0000 </r>
       <r>   -23.6788     0.0000     6.0000 </r>
       <r>   -23.4855     0.0000     6.0000 </r>
       <r>   -23.2923     0.0000     6.0000 </r>
       <r>   -23.0990     0.0000     6.0000 </r>
       <r>   -22.9058     0.0000     6.0000 </r>
       <r>   -22.7126     0.0000     6.0000 </r>
       <r>   -22.5193     0.0000     6.0000 </r>
       <r>   -22.3261     0.0000     6.0000 </r>
       <r>   -22.1329     0.0000     6.0000 </r>
       <r>   -21.9396     0.0000     6.0000 </r>
       <r>   -21.7464     0.0000     6.0000 </r>
       <r>   -21.5532     0.0000     6.0000 </r>
       <r>   -21.3599     0.0000     6.0000 </r>
       <r>   -21.1667     0.0000     6.0000 </r>
       <r>   -20.9734     0.0000     6.0000 </r>
       <r>   -20.7802     0.0000     6.0000 </r>
       <r>   -20.5870     0.0000     6.0000 </r>
       <r>   -20.3937     0.0000     6.0000 </r>
       <r>   -20.2005     0.0000     6.0000 </r>
       <r>   -20.0073     0.0000     6.0000 </r>
       <r>   -19.8140     0.0000     6.0000 </r>
       <r>   -19.6208     0.0000     6.0000 </r>
       <r>   -19.4276     0.0000     6.0000 </r>
       <r>   -19.2343     0.0000     6.0000 </r>
       <r>   -19.0411     0.0000     6.0000 </r>
       <r>   -18.8478     0.0000     6.0000 </r>
       <r>   -18.6546     0.0000     6.0000 </r>
       <r>   -18.4614     0.0000     6.0000 </r>
       <r>   -18.2681     0.0000     6.0000 </r>
       <r>   -18.0749     0.0000     6.0000 </r>
       <r>   -17.8817     0.0000     6.0000 </r>
       <r>   -17.6884     0.0000     6.0000 </r>
       <r>   -17.4952     0.0000     6.0000 </r>
       <r>   -17.3020     0.0000     6.0000 </r>
       <r>   -17.1087     0.0000     6.0000 </r>
       <r>   -16.9155     0.0000     6.0000 </r>
       <r>   -16.7222     0.0000     6.0000 </r>
       <r>   -16.5290     0.0000     6.0000 </r>
       <r>   -16.3358     0.0000     6.0000 </r>
       <r>   -16.1425     0.0000     6.0000 </r>
       <r>   -15.9493     0.0000     6.0000 </r>
       <r>   -15.7561     0.0000     6.0000 </r>
       <r>   -15.5628     0.0000     6.0000 </r>
       <r>   -15.3696     0.0000     6.0000 </r>
       <r>   -15.1764     0.0000     6.0000 </r>
       <r>   -14.9831     0.0000     6.0000 </r>
       <r>   -14.7899     0.0000     6.0000 </r>
       <r>   -14.5966     0.0000     6.0000 </r>
       <r>   -14.4034     0.0000     6.0000 </r>
       <r>   -14.2102     0.0000     6.0000 </r>
       <r>   -14.0169     0.0000     6.0000 </r>
       <r>   -13.8237     0.0000     6.0000 </r>
       <r>   -13.6305     0.0000     6.0000 </r>
       <r>   -13.4372     0.0000     6.0000 </r>
       <r>   -13.2440     0.0000     6.0000 </r>
       <r>   -13.0508     0.0000     6.0000 </r>
       <r>   -12.8575     0.0000     6.0000 </r>
       <r>   -12.6643     0.0000     6.0000 </r>
       <r>   -12.4710     0.0000     6.0000 </r>
       <r>   -12.2778     0.0000     6.0000 </r>
       <r>   -12.0846     0.0000     6.0000 </r>
       <r>   -11.8913     0.0000     6.0000 </r>
       <r>   -11.6981     0.0000     6.0000 </r>
       <r>   -11.5049     0.0000     6.0000 </r>
       <r>   -11.3116     0.0000     6.0000 </r>
       <r>   -11.1184     0.0000     6.0000 </r>
       <r>   -10.9252     0.0000     6.0000 </r>
       <r>   -10.7319     0.0000     6.0000 </r>
       <r>   -10.5387     0.0000     6.0000 </r>
       <r>   -10.3454     0.0000     6.0000 </r>
       <r>   -10.1522     0.0000     6.0000 </r>
       <r>    -9.9590     0.0000     6.0000 </r>
       <r>    -9.7657     0.0000     6.0000 </r>
       <r>    -9.5725     0.0000     6.0000 </r>
       <r>    -9.3793     0.0000     6.0000 </r>
       <r>    -9.1860     0.0000     6.0000 </r>
       <r>    -8.9928     0.0000     6.0000 </r>
       <r>    -8.7996     0.0000     6.0000 </r>
       <r>    -8.6063     0.0000     6.0000 </r>
       <r>    -8.4131     0.0000     6.0000 </r>
       <r>    -8.2198     0.0000     6.0000 </r>
       <r>    -8.0266     0.0000     6.0000 </r>
       <r>    -7.8334     0.0000     6.0000 </r>
       <r>    -7.6401     0.0000     6.0000 </r>
       <r>    -7.4469     0.0000     6.0000 </r>
       <r>    -7.2537     0.0000     6.0000 </r>
       <r>    -7.0604     0.0000     6.0000 </r>
       <r>    -6.8672     0.0000     6.0000 </r>
       <r>    -6.6739     0.0000     6.0000 </r>
       <r>    -6.4807     0.0000     6.0000 </r>
       <r>    -6.2875     0.0000     6.0000 </r>
       <r>    -6.0942     0.0000     6.0000 </r>
       <r>    -5.9010     0.0575     6.0111 </r>
       <r>    -5.7078     0.1779     6.0455 </r>
       <r>    -5.5145     0.8143     6.2029 </r>
       <r>    -5.3213     0.1482     6.2315 </r>
       <r>    -5.1281     1.0449     6.4334 </r>
       <r>    -4.9348     1.3258     6.6896 </r>
       <r>    -4.7416     2.0747     7.0905 </r>
       <r>    -4.5483     4.0006     7.8636 </r>
       <r>    -4.3551     0.7061     8.0000 </r>
       <r>    -4.1619     0.0000     8.0000 </r>
       <r>    -3.9686     0.0000     8.0000 </r>
       <r>    -3.7754     0.0000     8.0000 </r>
       <r>    -3.5822     0.0000     8.0000 </r>
       <r>    -3.3889     0.0000     8.0000 </r>
       <r>    -3.1957     0.0000     8.0000 </r>
       <r>    -3.0025     0.0000     8.0000 </r>
       <r>    -2.8092     0.0000     8.0000 </r>
       <r>    -2.6160     0.0000     8.0000 </r>
       <r>    -2.4227     0.0000     8.0000 </r>
       <r>    -2.2295     0.0000     8.0000 </r>
       <r>    -2.0363     0.0000     8.0000 </r>
       <r>    -1.8430     0.0000     8.0000 </r>
       <r>    -1.6498     0.0000     8.0000 </r>
       <r>    -1.4566     0.0000     8.0000 </r>
       <r>    -1.2633     0.0000     8.0000 </r>
       <r>    -1.0701     0.0000     8.0000 </r>
       <r>    -0.8769     0.0000     8.0000 </r>
       <r>    -0.6836     0.0000     8.0000 </r>
       <r>    -0.4904     0.0000     8.0000 </r>
       <r>    -0.2971     0.0000     8.0000 </r>
       <r>    -0.1039     0.0000     8.0000 </r>
       <r>     0.0893     0.0000     8.0000 </r>
       <r>     0.2826     0.0000     8.0000 </r>
       <r>     0.4758     0.0000     8.0000 </r>
       <r>     0.6690     0.0447     8.0086 </r>
       <r>     0.8623     0.0398     8.0163 </r>
       <r>     1.0555     1.8244     8.3689 </r>
       <r>     1.2487     1.0625     8.5742 </r>
       <r>     1.4420     1.1203     8.7906 </r>
       <r>     1.6352     1.8644     9.1509 </r>
       <r>     1.8285     1.7273     9.4847 </r>
       <r>     2.0217     0.5220     9.5856 </r>
       <r>     2.2149     1.0978     9.7977 </r>
       <r>     2.4082     1.8567    10.1565 </r>
       <r>     2.6014     2.6446    10.6675 </r>
       <r>     2.7946     7.1208    12.0435 </r>
       <r>     2.9879     2.5434    12.5350 </r>
       <r>     3.1811     1.3198    12.7900 </r>
       <r>     3.3743     5.9496    13.9397 </r>
       <r>     3.5676     4.0855    14.7292 </r>
       <r>     3.7608     2.9738    15.3038 </r>
       <r>     3.9541     2.3313    15.7543 </r>
       <r>     4.1473     2.5782    16.2525 </r>
       <r>     4.3405     0.8131    16.4096 </r>
       <r>     4.5338     0.9567    16.5945 </r>
       <r>     4.7270     1.0190    16.7914 </r>
       <r>     4.9202     3.7167    17.5096 </r>
       <r>     5.1135     1.2377    17.7488 </r>
       <r>     5.3067     2.7320    18.2767 </r>
       <r>     5.4999     1.6176    18.5893 </r>
       <r>     5.6932     1.1615    18.8137 </r>
       <r>     5.8864     0.3462    18.8806 </r>
       <r>     6.0797     0.4418    18.9660 </r>
       <r>     6.2729     0.0724    18.9800 </r>
       <r>     6.4661     0.0987    18.9991 </r>
       <r>     6.6594     0.5800    19.1112 </r>
       <r>     6.8526     1.3369    19.3695 </r>
       <r>     7.0458     2.0977    19.7748 </r>
       <r>     7.2391     2.2243    20.2046 </r>
       <r>     7.4323     5.2057    21.2106 </r>
       <r>     7.6255     4.9342    22.1640 </r>
       <r>     7.8188     3.0684    22.7570 </r>
       <r>     8.0120     2.4195    23.2245 </r>
       <r>     8.2053     2.1799    23.6457 </r>
       <r>     8.3985     1.3254    23.9019 </r>
       <r>     8.5917     0.5078    24.0000 </r>
       <r>     8.7850     0.0001    24.0000 </r>
       <r>     8.9782     0.0000    24.0000 </r>
       <r>     9.1714     0.0000    24.0000 </r>
       <r>     9.3647     0.0000    24.0000 </r>
       <r>     9.5579     0.0000    24.0000 </r>
       <r>     9.7511     0.0000    24.0000 </r>
       <r>     9.9444     0.0000    24.0000 </r>
       <r>    10.1376     0.0000    24.0000 </r>
       <r>    10.3309     0.0000    24.0000 </r>
       <r>    10.5241     0.0000    24.0000 </r>
       <r>    10.7173     0.0000    24.0000 </r>
       <r>    10.9106     0.0000    24.0000 </r>
       <r>    11.1038     0.0000    24.0000 </r>
      </set>
     </set>
    </array>
   </total>
  </dos>
 </calculation>
 <structure name="finalpos" >
  <crystal>
   <varray name="basis" >
    <v>       4.17349005       0.00000000       0.00000000 </v>
    <v>      -2.08674502       3.61434840       0.00000000 </v>
    <v>       0.00000000       0.00000000       6.75345135 </v>
   </varray>
   <i name="volume">    101.87207953 </i>
   <varray name="rec_basis" >
    <v>       0.23960762       0.13833752       0.00000000 </v>
    <v>       0.00000000       0.27667504       0.00000000 </v>
    <v>       0.00000000       0.00000000       0.14807244 </v>
   </varray>
  </crystal>
  <varray name="positions" >
   <v>       0.00000000       0.00000000       0.00000000 </v>
   <v>       0.00000000       0.00000000       0.50000000 </v>
   <v>       0.33333334       0.66666669       0.25000000 </v>
   <v>       0.66666666       0.33333331       0.75000000 </v>
  </varray>
 </structure>
</modeling>
