   4   4   0   0
  0.2546802E+02  0.4173490E-09  0.4173490E-09  0.6753451E-09  0.5000000E-15
  1.000000000000000E-004
  CAR 
 unknown system                          
     10.29906863    -44.31986763  301      5.82901145      1.00000000
    -44.320  0.0000E+00  0.0000E+00
    -44.138  0.0000E+00  0.0000E+00
    -43.956  0.0000E+00  0.0000E+00
    -43.774  0.0000E+00  0.0000E+00
    -43.592  0.0000E+00  0.0000E+00
    -43.410  0.0000E+00  0.0000E+00
    -43.227  0.0000E+00  0.0000E+00
    -43.045  0.0000E+00  0.0000E+00
    -42.863  0.0000E+00  0.0000E+00
    -42.681  0.0000E+00  0.0000E+00
    -42.499  0.0000E+00  0.0000E+00
    -42.317  0.0000E+00  0.0000E+00
    -42.135  0.0000E+00  0.0000E+00
    -41.953  0.3137E-04  0.5711E-05
    -41.771  0.1060E+00  0.1931E-01
    -41.589  0.2227E+00  0.5986E-01
    -41.407  0.7618E-03  0.6000E-01
    -41.225  0.0000E+00  0.6000E-01
    -41.043  0.0000E+00  0.6000E-01
    -40.861  0.0000E+00  0.6000E-01
    -40.679  0.0000E+00  0.6000E-01
    -40.497  0.0000E+00  0.6000E-01
    -40.314  0.0000E+00  0.6000E-01
    -40.132  0.0000E+00  0.6000E-01
    -39.950  0.0000E+00  0.6000E-01
    -39.768  0.0000E+00  0.6000E-01
    -39.586  0.0000E+00  0.6000E-01
    -39.404  0.0000E+00  0.6000E-01
    -39.222  0.0000E+00  0.6000E-01
    -39.040  0.0000E+00  0.6000E-01
    -38.858  0.0000E+00  0.6000E-01
    -38.676  0.0000E+00  0.6000E-01
    -38.494  0.0000E+00  0.6000E-01
    -38.312  0.0000E+00  0.6000E-01
    -38.130  0.0000E+00  0.6000E-01
    -37.948  0.0000E+00  0.6000E-01
    -37.766  0.0000E+00  0.6000E-01
    -37.584  0.0000E+00  0.6000E-01
    -37.401  0.0000E+00  0.6000E-01
    -37.219  0.0000E+00  0.6000E-01
    -37.037  0.0000E+00  0.6000E-01
    -36.855  0.0000E+00  0.6000E-01
    -36.673  0.0000E+00  0.6000E-01
    -36.491  0.0000E+00  0.6000E-01
    -36.309  0.0000E+00  0.6000E-01
    -36.127  0.0000E+00  0.6000E-01
    -35.945  0.0000E+00  0.6000E-01
    -35.763  0.0000E+00  0.6000E-01
    -35.581  0.0000E+00  0.6000E-01
    -35.399  0.0000E+00  0.6000E-01
    -35.217  0.0000E+00  0.6000E-01
    -35.035  0.0000E+00  0.6000E-01
    -34.853  0.0000E+00  0.6000E-01
    -34.671  0.0000E+00  0.6000E-01
    -34.488  0.0000E+00  0.6000E-01
    -34.306  0.0000E+00  0.6000E-01
    -34.124  0.0000E+00  0.6000E-01
    -33.942  0.0000E+00  0.6000E-01
    -33.760  0.0000E+00  0.6000E-01
    -33.578  0.0000E+00  0.6000E-01
    -33.396  0.0000E+00  0.6000E-01
    -33.214  0.0000E+00  0.6000E-01
    -33.032  0.0000E+00  0.6000E-01
    -32.850  0.0000E+00  0.6000E-01
    -32.668  0.0000E+00  0.6000E-01
    -32.486  0.0000E+00  0.6000E-01
    -32.304  0.0000E+00  0.6000E-01
    -32.122  0.0000E+00  0.6000E-01
    -31.940  0.0000E+00  0.6000E-01
    -31.758  0.0000E+00  0.6000E-01
    -31.575  0.0000E+00  0.6000E-01
    -31.393  0.0000E+00  0.6000E-01
    -31.211  0.0000E+00  0.6000E-01
    -31.029  0.0000E+00  0.6000E-01
    -30.847  0.0000E+00  0.6000E-01
    -30.665  0.0000E+00  0.6000E-01
    -30.483  0.0000E+00  0.6000E-01
    -30.301  0.0000E+00  0.6000E-01
    -30.119  0.0000E+00  0.6000E-01
    -29.937  0.0000E+00  0.6000E-01
    -29.755  0.0000E+00  0.6000E-01
    -29.573  0.0000E+00  0.6000E-01
    -29.391  0.0000E+00  0.6000E-01
    -29.209  0.0000E+00  0.6000E-01
    -29.027  0.0000E+00  0.6000E-01
    -28.845  0.0000E+00  0.6000E-01
    -28.662  0.0000E+00  0.6000E-01
    -28.480  0.0000E+00  0.6000E-01
    -28.298  0.0000E+00  0.6000E-01
    -28.116  0.0000E+00  0.6000E-01
    -27.934  0.0000E+00  0.6000E-01
    -27.752  0.0000E+00  0.6000E-01
    -27.570  0.0000E+00  0.6000E-01
    -27.388  0.0000E+00  0.6000E-01
    -27.206  0.0000E+00  0.6000E-01
    -27.024  0.0000E+00  0.6000E-01
    -26.842  0.0000E+00  0.6000E-01
    -26.660  0.0000E+00  0.6000E-01
    -26.478  0.0000E+00  0.6000E-01
    -26.296  0.0000E+00  0.6000E-01
    -26.114  0.0000E+00  0.6000E-01
    -25.931  0.0000E+00  0.6000E-01
    -25.749  0.0000E+00  0.6000E-01
    -25.567  0.0000E+00  0.6000E-01
    -25.385  0.0000E+00  0.6000E-01
    -25.203  0.0000E+00  0.6000E-01
    -25.021  0.0000E+00  0.6000E-01
    -24.839  0.0000E+00  0.6000E-01
    -24.657  0.0000E+00  0.6000E-01
    -24.475  0.0000E+00  0.6000E-01
    -24.293  0.0000E+00  0.6000E-01
    -24.111  0.0000E+00  0.6000E-01
    -23.929  0.0000E+00  0.6000E-01
    -23.747  0.0000E+00  0.6000E-01
    -23.565  0.0000E+00  0.6000E-01
    -23.383  0.0000E+00  0.6000E-01
    -23.201  0.0000E+00  0.6000E-01
    -23.018  0.0000E+00  0.6000E-01
    -22.836  0.0000E+00  0.6000E-01
    -22.654  0.0000E+00  0.6000E-01
    -22.472  0.0000E+00  0.6000E-01
    -22.290  0.0000E+00  0.6000E-01
    -22.108  0.0000E+00  0.6000E-01
    -21.926  0.0000E+00  0.6000E-01
    -21.744  0.0000E+00  0.6000E-01
    -21.562  0.0000E+00  0.6000E-01
    -21.380  0.0000E+00  0.6000E-01
    -21.198  0.0000E+00  0.6000E-01
    -21.016  0.0000E+00  0.6000E-01
    -20.834  0.0000E+00  0.6000E-01
    -20.652  0.0000E+00  0.6000E-01
    -20.470  0.0000E+00  0.6000E-01
    -20.288  0.0000E+00  0.6000E-01
    -20.105  0.0000E+00  0.6000E-01
    -19.923  0.0000E+00  0.6000E-01
    -19.741  0.0000E+00  0.6000E-01
    -19.559  0.0000E+00  0.6000E-01
    -19.377  0.0000E+00  0.6000E-01
    -19.195  0.0000E+00  0.6000E-01
    -19.013  0.0000E+00  0.6000E-01
    -18.831  0.0000E+00  0.6000E-01
    -18.649  0.0000E+00  0.6000E-01
    -18.467  0.0000E+00  0.6000E-01
    -18.285  0.0000E+00  0.6000E-01
    -18.103  0.0000E+00  0.6000E-01
    -17.921  0.0000E+00  0.6000E-01
    -17.739  0.0000E+00  0.6000E-01
    -17.557  0.0000E+00  0.6000E-01
    -17.375  0.0000E+00  0.6000E-01
    -17.192  0.0000E+00  0.6000E-01
    -17.010  0.0000E+00  0.6000E-01
    -16.828  0.0000E+00  0.6000E-01
    -16.646  0.0000E+00  0.6000E-01
    -16.464  0.0000E+00  0.6000E-01
    -16.282  0.0000E+00  0.6000E-01
    -16.100  0.0000E+00  0.6000E-01
    -15.918  0.0000E+00  0.6000E-01
    -15.736  0.0000E+00  0.6000E-01
    -15.554  0.0000E+00  0.6000E-01
    -15.372  0.0000E+00  0.6000E-01
    -15.190  0.0000E+00  0.6000E-01
    -15.008  0.0000E+00  0.6000E-01
    -14.826  0.0000E+00  0.6000E-01
    -14.644  0.0000E+00  0.6000E-01
    -14.462  0.0000E+00  0.6000E-01
    -14.279  0.0000E+00  0.6000E-01
    -14.097  0.0000E+00  0.6000E-01
    -13.915  0.0000E+00  0.6000E-01
    -13.733  0.0000E+00  0.6000E-01
    -13.551  0.0000E+00  0.6000E-01
    -13.369  0.0000E+00  0.6000E-01
    -13.187  0.0000E+00  0.6000E-01
    -13.005  0.0000E+00  0.6000E-01
    -12.823  0.0000E+00  0.6000E-01
    -12.641  0.0000E+00  0.6000E-01
    -12.459  0.0000E+00  0.6000E-01
    -12.277  0.0000E+00  0.6000E-01
    -12.095  0.0000E+00  0.6000E-01
    -11.913  0.0000E+00  0.6000E-01
    -11.731  0.0000E+00  0.6000E-01
    -11.549  0.0000E+00  0.6000E-01
    -11.366  0.0000E+00  0.6000E-01
    -11.184  0.0000E+00  0.6000E-01
    -11.002  0.0000E+00  0.6000E-01
    -10.820  0.0000E+00  0.6000E-01
    -10.638  0.0000E+00  0.6000E-01
    -10.456  0.0000E+00  0.6000E-01
    -10.274  0.0000E+00  0.6000E-01
    -10.092  0.0000E+00  0.6000E-01
     -9.910  0.0000E+00  0.6000E-01
     -9.728  0.0000E+00  0.6000E-01
     -9.546  0.0000E+00  0.6000E-01
     -9.364  0.0000E+00  0.6000E-01
     -9.182  0.0000E+00  0.6000E-01
     -9.000  0.0000E+00  0.6000E-01
     -8.818  0.0000E+00  0.6000E-01
     -8.635  0.0000E+00  0.6000E-01
     -8.453  0.0000E+00  0.6000E-01
     -8.271  0.0000E+00  0.6000E-01
     -8.089  0.0000E+00  0.6000E-01
     -7.907  0.0000E+00  0.6000E-01
     -7.725  0.0000E+00  0.6000E-01
     -7.543  0.0000E+00  0.6000E-01
     -7.361  0.0000E+00  0.6000E-01
     -7.179  0.0000E+00  0.6000E-01
     -6.997  0.0000E+00  0.6000E-01
     -6.815  0.0000E+00  0.6000E-01
     -6.633  0.9117E-17  0.6000E-01
     -6.451  0.4083E-05  0.6000E-01
     -6.269  0.7209E-03  0.6013E-01
     -6.087  0.2392E-02  0.6057E-01
     -5.905  0.8413E-02  0.6210E-01
     -5.722  0.1349E-02  0.6234E-01
     -5.540  0.1256E-01  0.6463E-01
     -5.358  0.1496E-01  0.6735E-01
     -5.176  0.2308E-01  0.7156E-01
     -4.994  0.4332E-01  0.7944E-01
     -4.812  0.3059E-02  0.8000E-01
     -4.630  0.7272E-10  0.8000E-01
     -4.448  0.0000E+00  0.8000E-01
     -4.266  0.0000E+00  0.8000E-01
     -4.084  0.0000E+00  0.8000E-01
     -3.902  0.0000E+00  0.8000E-01
     -3.720  0.0000E+00  0.8000E-01
     -3.538  0.0000E+00  0.8000E-01
     -3.356  0.0000E+00  0.8000E-01
     -3.174  0.0000E+00  0.8000E-01
     -2.992  0.0000E+00  0.8000E-01
     -2.809  0.0000E+00  0.8000E-01
     -2.627  0.0000E+00  0.8000E-01
     -2.445  0.0000E+00  0.8000E-01
     -2.263  0.0000E+00  0.8000E-01
     -2.081  0.0000E+00  0.8000E-01
     -1.899  0.0000E+00  0.8000E-01
     -1.717  0.0000E+00  0.8000E-01
     -1.535  0.0000E+00  0.8000E-01
     -1.353  0.0000E+00  0.8000E-01
     -1.171  0.0000E+00  0.8000E-01
     -0.989  0.0000E+00  0.8000E-01
     -0.807  0.0000E+00  0.8000E-01
     -0.625  0.0000E+00  0.8000E-01
     -0.443  0.0000E+00  0.8000E-01
     -0.261  0.0000E+00  0.8000E-01
     -0.079  0.0000E+00  0.8000E-01
      0.104  0.0000E+00  0.8000E-01
      0.286  0.1046E-15  0.8000E-01
      0.468  0.9511E-05  0.8000E-01
      0.650  0.5391E-03  0.8010E-01
      0.832  0.8456E-03  0.8025E-01
      1.014  0.2073E-01  0.8403E-01
      1.196  0.1274E-01  0.8635E-01
      1.378  0.9468E-02  0.8807E-01
      1.560  0.1714E-01  0.9119E-01
      1.742  0.2049E-01  0.9492E-01
      1.924  0.2077E-02  0.9530E-01
      2.106  0.1121E-01  0.9734E-01
      2.288  0.1141E-01  0.9942E-01
      2.470  0.1172E-01  0.1016E+00
      2.652  0.3751E-02  0.1022E+00
      2.834  0.3124E-01  0.1079E+00
      3.017  0.2463E-01  0.1124E+00
      3.199  0.1569E-01  0.1153E+00
      3.381  0.3964E-01  0.1225E+00
      3.563  0.4541E-01  0.1307E+00
      3.745  0.2293E-01  0.1349E+00
      3.927  0.3307E-02  0.1355E+00
      4.109  0.1202E-01  0.1377E+00
      4.291  0.6611E-02  0.1389E+00
      4.473  0.2635E-02  0.1394E+00
      4.655  0.1951E-02  0.1398E+00
      4.837  0.7628E-02  0.1411E+00
      5.019  0.8835E-02  0.1427E+00
      5.201  0.2130E-01  0.1466E+00
      5.383  0.3419E-01  0.1529E+00
      5.565  0.5864E-01  0.1635E+00
      5.747  0.8993E-01  0.1799E+00
      5.930  0.9580E-01  0.1973E+00
      6.112  0.4559E-01  0.2056E+00
      6.294  0.3676E-01  0.2123E+00
      6.476  0.2799E-01  0.2174E+00
      6.658  0.1721E-01  0.2206E+00
      6.840  0.3651E-01  0.2272E+00
      7.022  0.1614E-01  0.2302E+00
      7.204  0.1775E-01  0.2334E+00
      7.386  0.1717E-01  0.2365E+00
      7.568  0.9499E-02  0.2382E+00
      7.750  0.6521E-02  0.2394E+00
      7.932  0.3160E-02  0.2400E+00
      8.114  0.5789E-06  0.2400E+00
      8.296  0.0000E+00  0.2400E+00
      8.478  0.0000E+00  0.2400E+00
      8.661  0.0000E+00  0.2400E+00
      8.843  0.0000E+00  0.2400E+00
      9.025  0.0000E+00  0.2400E+00
      9.207  0.0000E+00  0.2400E+00
      9.389  0.0000E+00  0.2400E+00
      9.571  0.0000E+00  0.2400E+00
      9.753  0.0000E+00  0.2400E+00
      9.935  0.0000E+00  0.2400E+00
     10.117  0.0000E+00  0.2400E+00
     10.299  0.0000E+00  0.2400E+00
