    4    4  200    1
  0.2546802E+02  0.4173490E-09  0.4173490E-09  0.6753451E-09  0.5000000E-15
  1.000000000000000E-004
  CAR 
 unknown system                          
     38     15     24
 
  0.0000000E+00  0.0000000E+00  0.0000000E+00  0.1000000E-01
      1        -41.837189   1.000000
      2        -41.823332   1.000000
      3        -41.684409   1.000000
      4        -41.684408   1.000000
      5        -41.683226   1.000000
      6        -41.683224   1.000000
      7         -6.364628   1.000000
      8         -5.232393   1.000000
      9          0.542353   1.000000
     10          3.314042   1.000000
     11          3.314043   1.000000
     12          4.699751   1.000000
     13          5.239641   1.000000
     14          5.239642   1.000000
     15          5.243746   1.000000
     16          5.243747   1.000000
     17          5.352139   1.000000
     18          5.352140   1.000000
     19          5.416086   1.000000
     20          5.772625   0.944626
     21          5.772626   0.944625
     22          6.317509   0.000000
     23          7.816389   0.000000
     24          7.816390   0.000000
 
  0.2000000E+00  0.7977035E-17  0.0000000E+00  0.6000000E-01
      1        -41.837127   1.000000
      2        -41.823264   1.000000
      3        -41.684859   1.000000
      4        -41.684563   1.000000
      5        -41.683626   1.000000
      6        -41.683294   1.000000
      7         -6.081740   1.000000
      8         -5.126206   1.000000
      9          0.970810   1.000000
     10          2.689252   1.000000
     11          3.112017   1.000000
     12          3.298258   1.000000
     13          4.229945   1.000000
     14          4.299533   1.000000
     15          4.819467   1.000000
     16          5.462127   1.000000
     17          5.552358   1.000000
     18          5.675393   0.999993
     19          5.778087   0.925116
     20          5.839933   0.378693
     21          6.275994   0.000000
     22          6.674405   0.000000
     23          6.752672   0.000000
     24          7.643847   0.000000
 
  0.4000000E+00  0.5300274E-16  0.0000000E+00  0.6000000E-01
      1        -41.837001   1.000000
      2        -41.823191   1.000000
      3        -41.685582   1.000000
      4        -41.684756   1.000000
      5        -41.684257   1.000000
      6        -41.683474   1.000000
      7         -5.449693   1.000000
      8         -5.018763   1.000000
      9          0.995514   1.000000
     10          2.092329   1.000000
     11          2.128910   1.000000
     12          3.281667   1.000000
     13          3.290975   1.000000
     14          3.669896   1.000000
     15          4.707284   1.000000
     16          5.546553   1.000000
     17          5.606208   1.000000
     18          5.687344   0.999969
     19          5.764879   0.965157
     20          5.850854   0.268349
     21          6.019540   0.000000
     22          6.200802   0.000000
     23          6.965722   0.000000
     24          7.762330   0.000000
 
  0.2000000E+00  0.2000000E+00  0.0000000E+00  0.6000000E-01
      1        -41.837003   1.000000
      2        -41.823179   1.000000
      3        -41.685325   1.000000
      4        -41.684778   1.000000
      5        -41.684048   1.000000
      6        -41.683559   1.000000
      7         -5.617053   1.000000
      8         -5.006595   1.000000
      9          1.650666   1.000000
     10          1.748059   1.000000
     11          2.220320   1.000000
     12          2.905579   1.000000
     13          3.434783   1.000000
     14          3.580838   1.000000
     15          5.025956   1.000000
     16          5.604495   1.000000
     17          5.633525   1.000000
     18          5.723493   0.998580
     19          5.807709   0.726587
     20          5.817970   0.622598
     21          6.167430   0.000000
     22          6.715983   0.000000
     23          6.725456   0.000000
     24          7.053827   0.000000
 
  0.4000000E+00  0.2000000E+00  0.0000000E+00  0.6000000E-01
      1        -41.836934   1.000000
      2        -41.823119   1.000000
      3        -41.685525   1.000000
      4        -41.685013   1.000000
      5        -41.684191   1.000000
      6        -41.683739   1.000000
      7         -5.171904   1.000000
      8         -5.029058   1.000000
      9          0.855438   1.000000
     10          2.093795   1.000000
     11          2.480381   1.000000
     12          2.733420   1.000000
     13          2.955709   1.000000
     14          3.016342   1.000000
     15          5.172324   1.000000
     16          5.562304   1.000000
     17          5.692838   0.999941
     18          5.697198   0.999904
     19          5.699825   0.999871
     20          5.850939   0.267559
     21          5.981662   0.000008
     22          6.395497   0.000000
     23          6.745506   0.000000
     24          6.790450   0.000000
 
  0.0000000E+00  0.0000000E+00  0.2500000E+00  0.2000000E-01
      1        -41.835177   1.000000
      2        -41.825372   1.000000
      3        -41.684259   1.000000
      4        -41.684258   1.000000
      5        -41.683364   1.000000
      6        -41.683363   1.000000
      7         -6.233750   1.000000
      8         -5.447085   1.000000
      9          1.063819   1.000000
     10          3.453253   1.000000
     11          3.453253   1.000000
     12          4.002914   1.000000
     13          4.497689   1.000000
     14          4.497690   1.000000
     15          5.168878   1.000000
     16          5.303140   1.000000
     17          5.303140   1.000000
     18          5.628361   1.000000
     19          5.628361   1.000000
     20          6.043097   0.000000
     21          6.244106   0.000000
     22          6.244106   0.000000
     23          7.620483   0.000000
     24          7.620483   0.000000
 
  0.2000000E+00  0.7977035E-17  0.2500000E+00  0.1200000E+00
      1        -41.835088   1.000000
      2        -41.825295   1.000000
      3        -41.684700   1.000000
      4        -41.684366   1.000000
      5        -41.683806   1.000000
      6        -41.683485   1.000000
      7         -5.966206   1.000000
      8         -5.298155   1.000000
      9          1.307894   1.000000
     10          2.724962   1.000000
     11          2.972550   1.000000
     12          3.406973   1.000000
     13          3.994508   1.000000
     14          4.092501   1.000000
     15          5.043573   1.000000
     16          5.425501   1.000000
     17          5.536062   1.000000
     18          5.665992   0.999998
     19          5.817164   0.631228
     20          6.101512   0.000000
     21          6.154131   0.000000
     22          6.250415   0.000000
     23          6.748667   0.000000
     24          7.410081   0.000000
 
  0.4000000E+00  0.5300274E-16  0.2500000E+00  0.1200000E+00
      1        -41.834961   1.000000
      2        -41.825195   1.000000
      3        -41.685379   1.000000
      4        -41.684558   1.000000
      5        -41.684438   1.000000
      6        -41.683662   1.000000
      7         -5.388277   1.000000
      8         -5.083160   1.000000
      9          0.949959   1.000000
     10          1.543299   1.000000
     11          2.732150   1.000000
     12          3.330451   1.000000
     13          3.439891   1.000000
     14          3.601839   1.000000
     15          4.858657   1.000000
     16          5.455653   1.000000
     17          5.652812   1.000000
     18          5.739050   0.994528
     19          5.792731   0.847595
     20          5.940080   0.000840
     21          5.982515   0.000007
     22          6.290163   0.000000
     23          7.114665   0.000000
     24          7.288413   0.000000
 
  0.2000000E+00  0.2000000E+00  0.2500000E+00  0.1200000E+00
      1        -41.834988   1.000000
      2        -41.825208   1.000000
      3        -41.685129   1.000000
      4        -41.684621   1.000000
      5        -41.684226   1.000000
      6        -41.683735   1.000000
      7         -5.535725   1.000000
      8         -5.105094   1.000000
      9          1.523482   1.000000
     10          1.609896   1.000000
     11          2.774415   1.000000
     12          2.874849   1.000000
     13          3.308208   1.000000
     14          3.609095   1.000000
     15          5.163403   1.000000
     16          5.421223   1.000000
     17          5.566733   1.000000
     18          5.739340   0.994398
     19          5.765491   0.963803
     20          5.986068   0.000004
     21          6.101391   0.000000
     22          6.408510   0.000000
     23          6.577400   0.000000
     24          7.313918   0.000000
 
  0.4000000E+00  0.2000000E+00  0.2500000E+00  0.1200000E+00
      1        -41.834942   1.000000
      2        -41.825165   1.000000
      3        -41.685369   1.000000
      4        -41.684835   1.000000
      5        -41.684420   1.000000
      6        -41.683939   1.000000
      7         -5.147784   1.000000
      8         -5.046390   1.000000
      9          0.934223   1.000000
     10          1.675102   1.000000
     11          2.293231   1.000000
     12          2.809201   1.000000
     13          3.140623   1.000000
     14          3.276306   1.000000
     15          5.230346   1.000000
     16          5.501179   1.000000
     17          5.598867   1.000000
     18          5.744533   0.991562
     19          5.798058   0.809347
     20          5.844117   0.334599
     21          5.935828   0.001259
     22          6.397112   0.000000
     23          6.725461   0.000000
     24          7.130673   0.000000
 
  0.0000000E+00  0.0000000E+00  0.5000000E+00  0.1000000E-01
      1        -41.830253   1.000000
      2        -41.830253   1.000000
      3        -41.683824   1.000000
      4        -41.683824   1.000000
      5        -41.683823   1.000000
      6        -41.683823   1.000000
      7         -5.879492   1.000000
      8         -5.879492   1.000000
      9          2.380006   1.000000
     10          2.380006   1.000000
     11          3.859638   1.000000
     12          3.859638   1.000000
     13          3.859639   1.000000
     14          3.859639   1.000000
     15          5.463560   1.000000
     16          5.463560   1.000000
     17          5.463560   1.000000
     18          5.463560   1.000000
     19          5.528773   1.000000
     20          5.528773   1.000000
     21          7.054378   0.000000
     22          7.054378   0.000000
     23          7.054379   0.000000
     24          7.054379   0.000000
 
  0.2000000E+00  0.7977035E-17  0.5000000E+00  0.6000000E-01
      1        -41.830185   1.000000
      2        -41.830185   1.000000
      3        -41.684258   1.000000
      4        -41.684258   1.000000
      5        -41.683932   1.000000
      6        -41.683932   1.000000
      7         -5.659131   1.000000
      8         -5.659131   1.000000
      9          2.055266   1.000000
     10          2.055266   1.000000
     11          3.474578   1.000000
     12          3.474578   1.000000
     13          3.706458   1.000000
     14          3.706458   1.000000
     15          5.323310   1.000000
     16          5.323310   1.000000
     17          5.519517   1.000000
     18          5.519517   1.000000
     19          5.840746   0.369977
     20          5.840746   0.369976
     21          6.340442   0.000000
     22          6.340442   0.000000
     23          6.866993   0.000000
     24          6.866993   0.000000
 
  0.4000000E+00  0.5300274E-16  0.5000000E+00  0.6000000E-01
      1        -41.830081   1.000000
      2        -41.830081   1.000000
      3        -41.684913   1.000000
      4        -41.684913   1.000000
      5        -41.684097   1.000000
      6        -41.684097   1.000000
      7         -5.237247   1.000000
      8         -5.237247   1.000000
      9          1.090501   1.000000
     10          1.090501   1.000000
     11          3.322542   1.000000
     12          3.322542   1.000000
     13          3.457110   1.000000
     14          3.457110   1.000000
     15          5.197023   1.000000
     16          5.197023   1.000000
     17          5.729498   0.997558
     18          5.729499   0.997558
     19          5.821416   0.585056
     20          5.821416   0.585055
     21          6.527572   0.000000
     22          6.527572   0.000000
     23          6.665658   0.000000
     24          6.665658   0.000000
 
  0.2000000E+00  0.2000000E+00  0.5000000E+00  0.6000000E-01
      1        -41.830112   1.000000
      2        -41.830112   1.000000
      3        -41.684690   1.000000
      4        -41.684690   1.000000
      5        -41.684179   1.000000
      6        -41.684179   1.000000
      7         -5.328950   1.000000
      8         -5.328950   1.000000
      9          1.496896   1.000000
     10          1.496896   1.000000
     11          3.019679   1.000000
     12          3.019679   1.000000
     13          3.433213   1.000000
     14          3.433213   1.000000
     15          5.324577   1.000000
     16          5.324577   1.000000
     17          5.585482   1.000000
     18          5.585482   1.000000
     19          5.877431   0.085419
     20          5.877431   0.085419
     21          6.109539   0.000000
     22          6.109539   0.000000
     23          6.927268   0.000000
     24          6.927268   0.000000
 
  0.4000000E+00  0.2000000E+00  0.5000000E+00  0.6000000E-01
      1        -41.830063   1.000000
      2        -41.830063   1.000000
      3        -41.684900   1.000000
      4        -41.684900   1.000000
      5        -41.684386   1.000000
      6        -41.684386   1.000000
      7         -5.093699   1.000000
      8         -5.093699   1.000000
      9          1.192285   1.000000
     10          1.192285   1.000000
     11          2.433721   1.000000
     12          2.433721   1.000000
     13          3.430626   1.000000
     14          3.430626   1.000000
     15          5.364791   1.000000
     16          5.364791   1.000000
     17          5.658844   0.999999
     18          5.658844   0.999999
     19          5.822245   0.575889
     20          5.822245   0.575889
     21          6.089930   0.000000
     22          6.089931   0.000000
     23          7.398249   0.000000
     24          7.398249   0.000000
