       N       E                     dE             d eps       ncg     rms          rms(c)
DAV:   1     0.232374176398E+03    0.23237E+03   -0.21055E+04   864   0.150E+03
DAV:   2    -0.926030689554E+01   -0.24163E+03   -0.24050E+03   720   0.351E+02
DAV:   3    -0.223514465980E+02   -0.13091E+02   -0.12991E+02   960   0.824E+01
DAV:   4    -0.226011349530E+02   -0.24969E+00   -0.24692E+00   864   0.116E+01
DAV:   5    -0.226056950692E+02   -0.45601E-02   -0.45596E-02  1008   0.140E+00    0.135E+01
DAV:   6    -0.278677185186E+02   -0.52620E+01   -0.10422E+02   900   0.601E+01    0.302E+01
DAV:   7    -0.205797807915E+02    0.72879E+01   -0.68597E+01   804   0.495E+01    0.537E+00
DAV:   8    -0.206125804773E+02   -0.32800E-01   -0.15707E+00   720   0.623E+00    0.221E+00
DAV:   9    -0.205908963756E+02    0.21684E-01   -0.23437E-01   888   0.273E+00    0.130E+00
DAV:  10    -0.205930154832E+02   -0.21191E-02   -0.12887E-02   792   0.916E-01    0.657E-01
DAV:  11    -0.205927172119E+02    0.29827E-03   -0.40967E-03   864   0.305E-01    0.359E-01
DAV:  12    -0.205926016897E+02    0.11552E-03   -0.26300E-04   828   0.806E-02    0.196E-01
DAV:  13    -0.205925344164E+02    0.67273E-04   -0.19034E-04   888   0.705E-02    0.561E-02
DAV:  14    -0.205925286057E+02    0.58107E-05   -0.29865E-05   984   0.332E-02    0.862E-03
DAV:  15    -0.205925298239E+02   -0.12182E-05   -0.87627E-07   360   0.660E-03    0.168E-03
DAV:  16    -0.205925299939E+02   -0.17007E-06   -0.23642E-07   360   0.235E-03
   1 F= -.20592530E+02 E0= -.20576749E+02  d E =-.205925E+02
