<?xml version="1.0" encoding="ISO-8859-1"?>
<modeling>
 <generator>
  <i name="program" type="string">vasp </i>
  <i name="version" type="string">6.4.2  </i>
  <i name="subversion" type="string">20Jul23 (build Dec 23 2024 14:39:31) complex                          parallel </i>
  <i name="platform" type="string">LinuxIFC </i>
  <i name="date" type="string">2025 03 09 </i>
  <i name="time" type="string">14:52:15 </i>
 </generator>
 <incar>
  <i type="int" name="ISTART">     1</i>
  <i type="string" name="PREC">Accurate      (Accurate strictly avoids any aliasing or wrap around errors)</i>
  <i type="logical" name="ADDGRID"> T  </i>
  <i type="int" name="ISPIN">     1</i>
  <i type="int" name="IBRION">     2</i>
  <i name="EDIFF">      0.00000100</i>
  <i name="EDIFFG">     -0.01000000</i>
  <i type="int" name="NSW">   200</i>
  <i type="int" name="ISIF">     2</i>
  <i name="ENCUT">    500.00000000</i>
  <i name="POTIM">      0.50000000</i>
  <i type="int" name="ISMEAR">     0</i>
  <i name="SIGMA">      0.05000000</i>
  <i type="logical" name="LWAVE"> F  </i>
  <i type="logical" name="LCHARG"> F  </i>
  <i type="logical" name="LASPH"> T  </i>
 </incar>
 <primitive_cell>
  <structure name="primitive_cell" >
   <crystal>
    <varray name="basis" >
     <v>       4.17349005       0.00000000       0.00000000 </v>
     <v>      -2.08674502       3.61434840       0.00000000 </v>
     <v>       0.00000000       0.00000000       6.75345135 </v>
    </varray>
    <i name="volume">    101.87207953 </i>
    <varray name="rec_basis" >
     <v>       0.23960762       0.13833752       0.00000000 </v>
     <v>       0.00000000       0.27667504       0.00000000 </v>
     <v>       0.00000000       0.00000000       0.14807244 </v>
    </varray>
   </crystal>
   <varray name="positions" >
    <v>       0.00000000       0.00000000       0.00000000 </v>
    <v>       0.00000000       0.00000000       0.50000000 </v>
    <v>       0.33333334       0.66666669       0.25000000 </v>
    <v>       0.66666666       0.33333331       0.75000000 </v>
   </varray>
  </structure>
  <varray name="primitive_index" >
   <v type="int" >        1 </v>
   <v type="int" >        2 </v>
   <v type="int" >        3 </v>
   <v type="int" >        4 </v>
  </varray>
 </primitive_cell>
 <kpoints>
  <generation param="Gamma">
   <v type="int" name="divisions">       5        5        4 </v>
   <v name="usershift">      0.00000000       0.00000000       0.00000000 </v>
   <v name="genvec1">      0.20000000       0.00000000       0.00000000 </v>
   <v name="genvec2">      0.00000000       0.20000000       0.00000000 </v>
   <v name="genvec3">      0.00000000       0.00000000       0.25000000 </v>
   <v name="shift">      0.00000000       0.00000000       0.00000000 </v>
  </generation>
  <varray name="kpointlist" >
   <v>       0.00000000       0.00000000       0.00000000 </v>
   <v>       0.20000000       0.00000000       0.00000000 </v>
   <v>       0.40000000       0.00000000       0.00000000 </v>
   <v>       0.20000000       0.20000000       0.00000000 </v>
   <v>       0.40000000       0.20000000       0.00000000 </v>
   <v>       0.00000000       0.00000000       0.25000000 </v>
   <v>       0.20000000       0.00000000       0.25000000 </v>
   <v>       0.40000000       0.00000000       0.25000000 </v>
   <v>       0.20000000       0.20000000       0.25000000 </v>
   <v>       0.40000000       0.20000000       0.25000000 </v>
   <v>       0.00000000       0.00000000       0.50000000 </v>
   <v>       0.20000000       0.00000000       0.50000000 </v>
   <v>       0.40000000       0.00000000       0.50000000 </v>
   <v>       0.20000000       0.20000000       0.50000000 </v>
   <v>       0.40000000       0.20000000       0.50000000 </v>
  </varray>
  <varray name="weights" >
   <v>       0.01000000 </v>
   <v>       0.06000000 </v>
   <v>       0.06000000 </v>
   <v>       0.06000000 </v>
   <v>       0.06000000 </v>
   <v>       0.02000000 </v>
   <v>       0.12000000 </v>
   <v>       0.12000000 </v>
   <v>       0.12000000 </v>
   <v>       0.12000000 </v>
   <v>       0.01000000 </v>
   <v>       0.06000000 </v>
   <v>       0.06000000 </v>
   <v>       0.06000000 </v>
   <v>       0.06000000 </v>
  </varray>
 </kpoints>
 <parameters>
  <separator name="general" >
   <i type="string" name="SYSTEM">unknown system</i>
   <i type="logical" name="LCOMPAT"> F  </i>
  </separator>
  <separator name="electronic" >
   <i type="string" name="PREC">accura</i>
   <i name="ENMAX">    500.00000000</i>
   <i name="ENAUG">    569.08500000</i>
   <i name="EDIFF">      0.00000100</i>
   <i type="int" name="IALGO">    38</i>
   <i type="int" name="IWAVPR">    11</i>
   <i type="int" name="NBANDS">    24</i>
   <i type="int" name="NBANDSLOW">    -1</i>
   <i type="int" name="NBANDSHIGH">    -1</i>
   <i name="NELECT">     38.00000000</i>
   <i type="int" name="TURBO">     0</i>
   <i type="int" name="IRESTART">     0</i>
   <i type="int" name="NREBOOT">     0</i>
   <i type="int" name="NMIN">     0</i>
   <i name="EREF">      0.00000000</i>
   <separator name="electronic smearing" >
    <i type="int" name="ISMEAR">     0</i>
    <i name="SIGMA">      0.05000000</i>
    <i name="KSPACING">      0.50000000</i>
    <i type="logical" name="KGAMMA"> T  </i>
    <i type="logical" name="KBLOWUP"> T  </i>
   </separator>
   <separator name="electronic projectors" >
    <i type="logical" name="LREAL"> F  </i>
    <v name="ROPT">      0.00000000      0.00000000</v>
    <i type="int" name="LMAXPAW">  -100</i>
    <i type="int" name="LMAXMIX">     2</i>
    <i type="logical" name="NLSPLINE"> F  </i>
   </separator>
   <separator name="electronic startup" >
    <i type="int" name="ISTART">     0</i>
    <i type="int" name="ICHARG">     2</i>
    <i type="int" name="INIWAV">     1</i>
   </separator>
   <separator name="electronic spin" >
    <i type="int" name="ISPIN">     1</i>
    <i type="logical" name="LNONCOLLINEAR"> F  </i>
    <v name="MAGMOM">      1.00000000      1.00000000      1.00000000      1.00000000</v>
    <i name="NUPDOWN">     -1.00000000</i>
    <i type="logical" name="LSORBIT"> F  </i>
    <v name="SAXIS">      0.00000000      0.00000000      1.00000000</v>
    <i type="logical" name="LSPIRAL"> F  </i>
    <v name="QSPIRAL">      0.00000000      0.00000000      0.00000000</v>
    <i type="logical" name="LZEROZ"> F  </i>
   </separator>
   <separator name="electronic exchange-correlation" >
    <i type="logical" name="LASPH"> T  </i>
    <i type="logical" name="LMETAGGA"> F  </i>
   </separator>
   <separator name="electronic convergence" >
    <i type="int" name="NELM">    60</i>
    <i type="int" name="NELMDL">     0</i>
    <i type="int" name="NELMIN">     2</i>
    <i name="ENINI">    500.00000000</i>
    <separator name="electronic convergence detail" >
     <i type="logical" name="LDIAG"> T  </i>
     <i type="logical" name="LSUBROT"> F  </i>
     <i name="WEIMIN">      0.00100000</i>
     <i name="EBREAK">      0.00000001</i>
     <i name="DEPER">      0.30000000</i>
     <i type="int" name="NRMM">     4</i>
     <i name="TIME">      0.40000000</i>
    </separator>
   </separator>
   <separator name="electronic mixer" >
    <i name="AMIX">      0.40000000</i>
    <i name="BMIX">      1.00000000</i>
    <i name="AMIN">      0.10000000</i>
    <i name="AMIX_MAG">      1.60000000</i>
    <i name="BMIX_MAG">      1.00000000</i>
    <separator name="electronic mixer details" >
     <i type="int" name="IMIX">     4</i>
     <i type="logical" name="MIXFIRST"> F  </i>
     <i type="int" name="MAXMIX">   -45</i>
     <i name="WC">    100.00000000</i>
     <i type="int" name="INIMIX">     1</i>
     <i type="int" name="MIXPRE">     1</i>
     <i type="int" name="MREMOVE">     5</i>
    </separator>
   </separator>
   <separator name="electronic dipolcorrection" >
    <i type="logical" name="LDIPOL"> F  </i>
    <i type="logical" name="LMONO"> F  </i>
    <i type="int" name="IDIPOL">     0</i>
    <i name="EPSILON">      1.00000000</i>
    <v name="DIPOL">   -100.00000000   -100.00000000   -100.00000000</v>
    <i name="EFIELD">      0.00000000</i>
   </separator>
  </separator>
  <separator name="grids" >
   <i type="int" name="NGX">    30</i>
   <i type="int" name="NGY">    30</i>
   <i type="int" name="NGZ">    50</i>
   <i type="int" name="NGXF">    60</i>
   <i type="int" name="NGYF">    60</i>
   <i type="int" name="NGZF">   100</i>
   <i type="logical" name="ADDGRID"> T  </i>
  </separator>
  <separator name="ionic" >
   <i type="int" name="NSW">   200</i>
   <i type="int" name="IBRION">     2</i>
   <i type="int" name="MDALGO">     0</i>
   <i type="int" name="ISIF">     2</i>
   <i name="PSTRESS">      0.00000000</i>
   <i name="EDIFFG">     -0.01000000</i>
   <i type="int" name="NFREE">     1</i>
   <i name="POTIM">      0.50000000</i>
   <i name="SMASS">     -3.00000000</i>
   <i name="SCALEE">      1.00000000</i>
  </separator>
  <separator name="ionic md" >
   <i name="TEBEG">      0.00010000</i>
   <i name="TEEND">      0.00010000</i>
   <i type="int" name="NBLOCK">     1</i>
   <i type="int" name="KBLOCK">   200</i>
   <i type="int" name="NPACO">   256</i>
   <i name="APACO">     10.00000000</i>
  </separator>
  <separator name="symmetry" >
   <i type="int" name="ISYM">     2</i>
   <i name="SYMPREC">      0.00001000</i>
  </separator>
  <separator name="dos" >
   <i type="int" name="LORBIT">     0</i>
   <v name="RWIGS">     -1.00000000     -1.00000000</v>
   <i type="int" name="NEDOS">   301</i>
   <i name="EMIN">     10.00000000</i>
   <i name="EMAX">    -10.00000000</i>
   <i name="EFERMI">      0.00000000</i>
  </separator>
  <separator name="writing" >
   <i type="int" name="NWRITE">     2</i>
   <i type="logical" name="LWAVE"> F  </i>
   <i type="logical" name="LDOWNSAMPLE"> F  </i>
   <i type="logical" name="LCHARG"> F  </i>
   <i type="logical" name="LPARD"> F  </i>
   <i type="logical" name="LVTOT"> F  </i>
   <i type="logical" name="LVHAR"> F  </i>
   <i type="logical" name="LELF"> F  </i>
   <i type="logical" name="LOPTICS"> F  </i>
   <v name="STM">      0.00000000      0.00000000      0.00000000      0.00000000      0.00000000      0.00000000      0.00000000</v>
  </separator>
  <separator name="performance" >
   <i type="int" name="NPAR">     6</i>
   <i type="int" name="NSIM">     4</i>
   <i type="int" name="NBLK">    -1</i>
   <i type="logical" name="LPLANE"> T  </i>
   <i type="logical" name="LSCALAPACK"> T  </i>
   <i type="logical" name="LSCAAWARE"> F  </i>
   <i type="logical" name="LSCALU"> F  </i>
   <i type="logical" name="LASYNC"> F  </i>
   <i type="logical" name="LORBITALREAL"> F  </i>
  </separator>
  <separator name="miscellaneous" >
   <i type="int" name="IDIOT">     3</i>
   <i type="int" name="PHON_NSTRUCT">    -1</i>
   <i type="logical" name="LMUSIC"> F  </i>
   <v name="POMASS">     54.93800000    127.60000000</v>
   <v name="DARWINR">      0.00000000      0.00000000</v>
   <v name="DARWINV">      1.00000000      1.00000000</v>
   <i type="logical" name="LCORR"> T  </i>
  </separator>
  <i type="logical" name="GGA_COMPAT"> T  </i>
  <i type="logical" name="LBERRY"> F  </i>
  <i type="int" name="ICORELEVEL">     0</i>
  <i type="logical" name="LDAU"> F  </i>
  <i type="int" name="I_CONSTRAINED_M">     0</i>
  <separator name="electronic exchange-correlation" >
   <i type="string" name="GGA">--</i>
   <i type="int" name="VOSKOWN">     0</i>
   <i type="logical" name="LHFCALC"> F  </i>
   <i type="string" name="PRECFOCK"></i>
   <i type="logical" name="LSYMGRAD"> F  </i>
   <i type="logical" name="LHFONE"> F  </i>
   <i type="logical" name="LRHFCALC"> F  </i>
   <i type="logical" name="LTHOMAS"> F  </i>
   <i type="logical" name="LMODELHF"> F  </i>
   <i type="logical" name="LFOCKACE"> F  </i>
   <i name="ENCUT4O">     -1.00000000</i>
   <i type="int" name="EXXOEP">     0</i>
   <i type="int" name="FOURORBIT">     0</i>
   <i name="AEXX">      0.00000000</i>
   <i name="HFALPHA">      0.00000000</i>
   <i name="MCALPHA">      0.00000000</i>
   <i name="ALDAX">      1.00000000</i>
   <i name="AGGAX">      1.00000000</i>
   <i name="ALDAC">      1.00000000</i>
   <i name="AGGAC">      1.00000000</i>
   <i type="int" name="NKREDX">     1</i>
   <i type="int" name="NKREDY">     1</i>
   <i type="int" name="NKREDZ">     1</i>
   <i type="logical" name="SHIFTRED"> F  </i>
   <i type="logical" name="ODDONLY"> F  </i>
   <i type="logical" name="EVENONLY"> F  </i>
   <i type="int" name="LMAXFOCK">     0</i>
   <i type="int" name="NMAXFOCKAE">     0</i>
   <i type="logical" name="LFOCKAEDFT"> F  </i>
   <i name="HFSCREEN">      0.00000000</i>
   <i name="HFSCREENC">      0.00000000</i>
   <i type="int" name="NBANDSGWLOW">     0</i>
  </separator>
  <separator name="vdW DFT" >
   <i type="logical" name="LUSE_VDW"> F  </i>
   <i type="int" name="IVDW_NL">     1</i>
   <i type="logical" name="LSPIN_VDW"> F  </i>
   <i name="Zab_VDW">     -0.84910000</i>
   <i name="PARAM1">      0.12340000</i>
   <i name="PARAM2">      1.00000000</i>
   <i name="PARAM3">      0.00000000</i>
  </separator>
  <separator name="model GW" >
   <i type="int" name="MODEL_GW">     0</i>
   <i name="MODEL_EPS0">     15.28081193</i>
   <i name="MODEL_ALPHA">      1.00000000</i>
  </separator>
  <separator name="linear response parameters" >
   <i type="logical" name="LEPSILON"> F  </i>
   <i type="logical" name="LRPA"> F  </i>
   <i type="logical" name="LNABLA"> F  </i>
   <i type="logical" name="LVEL"> F  </i>
   <i name="CSHIFT">      0.10000000</i>
   <i name="OMEGAMAX">     -1.00000000</i>
   <i name="DEG_THRESHOLD">      0.00200000</i>
   <i name="RTIME">     -0.10000000</i>
   <i name="WPLASMAI">      0.00000000</i>
   <v name="DFIELD">      0.00000000      0.00000000      0.00000000</v>
   <v name="WPLASMA">      0.00000000      0.00000000      0.00000000      0.00000000      0.00000000      0.00000000      0.00000000      0.00000000      0.00000000</v>
  </separator>
  <separator name="orbital magnetization" >
   <i type="logical" name="NUCIND"> F  </i>
   <v name="MAGPOS">      0.00000000      0.00000000      0.00000000</v>
   <i type="logical" name="LNICSALL"> T  </i>
   <i type="logical" name="ORBITALMAG"> F  </i>
   <i type="logical" name="LMAGBLOCH"> F  </i>
   <i type="logical" name="LCHIMAG"> F  </i>
   <i type="logical" name="LGAUGE"> T  </i>
   <i type="int" name="MAGATOM">     0</i>
   <v name="MAGDIPOL">      0.00000000      0.00000000      0.00000000</v>
   <v name="AVECCONST">      0.00000000      0.00000000      0.00000000</v>
  </separator>
  <separator name="response functions" >
   <i type="logical" name="LALL_IN_ONE"> F  </i>
   <i type="int" name="IALL_IN_ONE">    -1</i>
   <i type="int" name="NBANDS_WAVE">    -1</i>
   <i type="logical" name="LFINITE_TEMPERATURE"> F  </i>
   <i type="logical" name="LADDER"> F  </i>
   <i type="logical" name="LRPAFORCE"> F  </i>
   <i type="logical" name="LFXC"> F  </i>
   <i type="logical" name="LHARTREE"> T  </i>
   <i type="int" name="IBSE">     0</i>
   <v type="int" name="KPOINT">    -1     0     0     0</v>
   <i type="logical" name="LTCTC"> F  </i>
   <i type="logical" name="LTCTE"> F  </i>
   <i type="logical" name="LTETE"> F  </i>
   <i type="logical" name="LTRIPLET"> F  </i>
   <i type="logical" name="LFXCEPS"> F  </i>
   <i type="logical" name="LFXHEG"> F  </i>
   <i type="int" name="NATURALO">     2</i>
   <i type="logical" name="LHOLEGF"> F  </i>
   <i type="logical" name="L2ORDER"> F  </i>
   <i type="logical" name="LDMP1"> F  </i>
   <i type="logical" name="LMP2LT"> F  </i>
   <i type="logical" name="LSMP2LT"> F  </i>
   <i type="logical" name="LGWLF"> F  </i>
   <i name="ENCUTGW">     -1.60000002</i>
   <i name="ENCUTGWSOFT">     -1.60000002</i>
   <i name="ENCUTLF">     -1.00000000</i>
   <i type="logical" name="LESF_SPLINES"> F  </i>
   <i type="int" name="LMAXMP2">    -1</i>
   <i name="SCISSOR">      0.00000000</i>
   <i type="int" name="NOMEGA">     0</i>
   <i type="int" name="NOMEGAR">     0</i>
   <i type="int" name="NBANDSGW">    -1</i>
   <i type="int" name="NBANDSO">    -1</i>
   <i type="int" name="NBANDSV">    -1</i>
   <i type="int" name="NELMGW">     1</i>
   <i type="int" name="NELMHF">     1</i>
   <i type="int" name="DIM">     3</i>
   <i type="int" name="IESPILON">     4</i>
   <i type="int" name="ANTIRES">     0</i>
   <i name="OMEGAMAX">    -30.00000000</i>
   <i name="OMEGAMIN">    -30.00000000</i>
   <i name="OMEGATL">   -200.00000000</i>
   <i type="int" name="OMEGAGRID">     0</i>
   <i name="CSHIFT">     -0.10000000</i>
   <i type="logical" name="LSELFENERGY"> F  </i>
   <i type="logical" name="LSPECTRAL"> F  </i>
   <i type="logical" name="LSPECTRALGW"> F  </i>
   <i type="logical" name="LSINGLES"> F  </i>
   <i type="logical" name="LFERMIGW"> F  </i>
   <i type="logical" name="ODDONLYGW"> F  </i>
   <i type="logical" name="EVENONLYGW"> F  </i>
   <i type="int" name="NKREDLFX">     1</i>
   <i type="int" name="NKREDLFY">     1</i>
   <i type="int" name="NKREDLFZ">     1</i>
   <i type="int" name="MAXMEM">  2800</i>
   <i type="int" name="TELESCOPE">     0</i>
   <i type="int" name="NTAUPAR">    -1</i>
   <i type="int" name="NOMEGAPAR">    -1</i>
   <i name="DAMP_NEWTON">      0.80000001</i>
   <i name="LAMBDA">      1.00000000</i>
  </separator>
  <separator name="External order field" >
   <i name="OFIELD_KAPPA">      0.00000000</i>
   <v name="OFIELD_K">      0.00000000      0.00000000      0.00000000</v>
   <i name="OFIELD_Q6_NEAR">      0.00000000</i>
   <i name="OFIELD_Q6_FAR">      0.00000000</i>
   <i name="OFIELD_A">      0.00000000</i>
  </separator>
  <separator name="optional k-points parameters" >
   <i type="int" name="KPOINTS_OPT_MODE">     1</i>
   <i type="logical" name="LKPOINTS_OPT"> F  </i>
  </separator>
 </parameters>
 <atominfo>
  <atoms>       4 </atoms>
  <types>       2 </types>
  <array name="atoms" >
   <dimension dim="1">ion</dimension>
   <field type="string">element</field>
   <field type="int">atomtype</field>
   <set>
    <rc><c>Mn</c><c>   1</c></rc>
    <rc><c>Mn</c><c>   1</c></rc>
    <rc><c>Te</c><c>   2</c></rc>
    <rc><c>Te</c><c>   2</c></rc>
   </set>
  </array>
  <array name="atomtypes" >
   <dimension dim="1">type</dimension>
   <field type="int">atomspertype</field>
   <field type="string">element</field>
   <field>mass</field>
   <field>valence</field>
   <field type="string">pseudopotential</field>
   <set>
    <rc><c>   2</c><c>Mn</c><c>     54.93800000</c><c>     13.00000000</c><c>  PAW_PBE Mn_pv 02Aug2007               </c></rc>
    <rc><c>   2</c><c>Te</c><c>    127.60000000</c><c>      6.00000000</c><c>  PAW_PBE Te 08Apr2002                  </c></rc>
   </set>
  </array>
 </atominfo>
 <structure name="initialpos" >
  <crystal>
   <varray name="basis" >
    <v>       4.17349005       0.00000000       0.00000000 </v>
    <v>      -2.08674502       3.61434840       0.00000000 </v>
    <v>       0.00000000       0.00000000       6.75345135 </v>
   </varray>
   <i name="volume">    101.87207953 </i>
   <varray name="rec_basis" >
    <v>       0.23960762       0.13833752       0.00000000 </v>
    <v>       0.00000000       0.27667504       0.00000000 </v>
    <v>       0.00000000       0.00000000       0.14807244 </v>
   </varray>
  </crystal>
  <varray name="positions" >
   <v>       0.00000000       0.00000000       0.00000000 </v>
   <v>       0.00000000       0.00000000       0.50000000 </v>
   <v>       0.33333334       0.66666669       0.25000000 </v>
   <v>       0.66666666       0.33333331       0.75000000 </v>
  </varray>
 </structure>
 <calculation>
  <scstep>
   <time name="dav">    1.09    1.12</time>
   <time name="total">    1.58    1.63</time>
   <energy>
    <i name="alphaZ">     72.43094580 </i>
    <i name="ewald">  -2687.77321596 </i>
    <i name="hartreedc">  -1565.14315478 </i>
    <i name="XCdc">     79.42420674 </i>
    <i name="pawpsdc">   3708.09246124 </i>
    <i name="pawaedc">  -3732.62305248 </i>
    <i name="eentropy">     -0.00865759 </i>
    <i name="bandstr">   -139.08861026 </i>
    <i name="atom">   4497.06325368 </i>
    <i name="e_fr_energy">    232.37417640 </i>
    <i name="e_wo_entrp">    232.38283399 </i>
    <i name="e_0_energy">    232.37850519 </i>
   </energy>
  </scstep>
  <scstep>
   <time name="dav">    0.94    0.95</time>
   <time name="total">    0.94    0.95</time>
   <energy>
    <i name="e_fr_energy">     -9.26030690 </i>
    <i name="e_wo_entrp">     -9.24321079 </i>
    <i name="e_0_energy">     -9.25175884 </i>
   </energy>
  </scstep>
  <scstep>
   <time name="dav">    1.14    1.16</time>
   <time name="total">    1.14    1.16</time>
   <energy>
    <i name="e_fr_energy">    -22.35144660 </i>
    <i name="e_wo_entrp">    -22.33330980 </i>
    <i name="e_0_energy">    -22.34237820 </i>
   </energy>
  </scstep>
  <scstep>
   <time name="dav">    1.06    1.07</time>
   <time name="total">    1.06    1.08</time>
   <energy>
    <i name="e_fr_energy">    -22.60113495 </i>
    <i name="e_wo_entrp">    -22.58586600 </i>
    <i name="e_0_energy">    -22.59350048 </i>
   </energy>
  </scstep>
  <scstep>
   <time name="dav">    1.19    1.21</time>
   <time name="total">    1.39    1.41</time>
   <energy>
    <i name="e_fr_energy">    -22.60569507 </i>
    <i name="e_wo_entrp">    -22.59043238 </i>
    <i name="e_0_energy">    -22.59806372 </i>
   </energy>
  </scstep>
  <scstep>
   <time name="dav">    1.08    1.08</time>
   <time name="total">    1.70    1.72</time>
   <energy>
    <i name="e_fr_energy">    -27.86771852 </i>
    <i name="e_wo_entrp">    -27.86212080 </i>
    <i name="e_0_energy">    -27.86491966 </i>
   </energy>
  </scstep>
  <scstep>
   <time name="dav">    0.99    1.00</time>
   <time name="total">    1.65    1.67</time>
   <energy>
    <i name="e_fr_energy">    -20.57978079 </i>
    <i name="e_wo_entrp">    -20.55037643 </i>
    <i name="e_0_energy">    -20.56507861 </i>
   </energy>
  </scstep>
  <scstep>
   <time name="dav">    0.94    0.94</time>
   <time name="total">    1.59    1.61</time>
   <energy>
    <i name="e_fr_energy">    -20.61258048 </i>
    <i name="e_wo_entrp">    -20.58070422 </i>
    <i name="e_0_energy">    -20.59664235 </i>
   </energy>
  </scstep>
  <scstep>
   <time name="dav">    1.08    1.08</time>
   <time name="total">    1.72    1.75</time>
   <energy>
    <i name="e_fr_energy">    -20.59089638 </i>
    <i name="e_wo_entrp">    -20.55891597 </i>
    <i name="e_0_energy">    -20.57490617 </i>
   </energy>
  </scstep>
  <scstep>
   <time name="dav">    0.99    0.99</time>
   <time name="total">    1.61    1.64</time>
   <energy>
    <i name="e_fr_energy">    -20.59301548 </i>
    <i name="e_wo_entrp">    -20.56177650 </i>
    <i name="e_0_energy">    -20.57739599 </i>
   </energy>
  </scstep>
  <scstep>
   <time name="dav">    1.06    1.06</time>
   <time name="total">    1.70    1.72</time>
   <energy>
    <i name="e_fr_energy">    -20.59271721 </i>
    <i name="e_wo_entrp">    -20.56095893 </i>
    <i name="e_0_energy">    -20.57683807 </i>
   </energy>
  </scstep>
  <scstep>
   <time name="dav">    1.04    1.04</time>
   <time name="total">    1.68    1.70</time>
   <energy>
    <i name="e_fr_energy">    -20.59260169 </i>
    <i name="e_wo_entrp">    -20.56097185 </i>
    <i name="e_0_energy">    -20.57678677 </i>
   </energy>
  </scstep>
  <scstep>
   <time name="dav">    1.10    1.10</time>
   <time name="total">    1.74    1.77</time>
   <energy>
    <i name="e_fr_energy">    -20.59253442 </i>
    <i name="e_wo_entrp">    -20.56095030 </i>
    <i name="e_0_energy">    -20.57674236 </i>
   </energy>
  </scstep>
  <scstep>
   <time name="dav">    1.16    1.16</time>
   <time name="total">    1.81    1.83</time>
   <energy>
    <i name="e_fr_energy">    -20.59252861 </i>
    <i name="e_wo_entrp">    -20.56096142 </i>
    <i name="e_0_energy">    -20.57674501 </i>
   </energy>
  </scstep>
  <scstep>
   <time name="dav">    0.61    0.61</time>
   <time name="total">    1.25    1.27</time>
   <energy>
    <i name="e_fr_energy">    -20.59252982 </i>
    <i name="e_wo_entrp">    -20.56096514 </i>
    <i name="e_0_energy">    -20.57674748 </i>
   </energy>
  </scstep>
  <scstep>
   <time name="dav">    0.62    0.62</time>
   <time name="total">    1.05    1.07</time>
   <energy>
    <i name="alphaZ">     72.43094580 </i>
    <i name="ewald">  -2687.77321596 </i>
    <i name="hartreedc">  -1521.06326760 </i>
    <i name="XCdc">     77.99176608 </i>
    <i name="pawpsdc">   4058.44661159 </i>
    <i name="pawaedc">  -4083.07902271 </i>
    <i name="eentropy">     -0.03156211 </i>
    <i name="bandstr">   -434.57803876 </i>
    <i name="atom">   4497.06325368 </i>
    <i name="e_fr_energy">    -20.59252999 </i>
    <i name="e_wo_entrp">    -20.56096789 </i>
    <i name="e_0_energy">    -20.57674894 </i>
   </energy>
  </scstep>
  <structure>
   <crystal>
    <varray name="basis" >
     <v>       4.17349005       0.00000000       0.00000000 </v>
     <v>      -2.08674502       3.61434840       0.00000000 </v>
     <v>       0.00000000       0.00000000       6.75345135 </v>
    </varray>
    <i name="volume">    101.87207953 </i>
    <varray name="rec_basis" >
     <v>       0.23960762       0.13833752       0.00000000 </v>
     <v>       0.00000000       0.27667504       0.00000000 </v>
     <v>       0.00000000       0.00000000       0.14807244 </v>
    </varray>
   </crystal>
   <varray name="positions" >
    <v>       0.00000000       0.00000000       0.00000000 </v>
    <v>       0.00000000       0.00000000       0.50000000 </v>
    <v>       0.33333334       0.66666669       0.25000000 </v>
    <v>       0.66666666       0.33333331       0.75000000 </v>
   </varray>
  </structure>
  <varray name="forces" >
   <v>       0.00000000      -0.00000000       0.00000000 </v>
   <v>       0.00000000      -0.00000000       0.00000000 </v>
   <v>      -0.00000000       0.00000000       0.00000000 </v>
   <v>       0.00000000       0.00000000      -0.00000000 </v>
  </varray>
  <varray name="stress" >
   <v>    -154.41371648      -0.00000000      -0.00000000 </v>
   <v>      -0.00000000    -154.41371647       0.00000000 </v>
   <v>      -0.00000000      -0.00000000    -213.38030895 </v>
  </varray>
  <energy>
   <i name="e_fr_energy">    -20.59252999 </i>
   <i name="e_wo_entrp">    -20.56096789 </i>
   <i name="e_0_energy">    -20.57674894 </i>
  </energy>
  <time name="totalsc">   28.26   28.86</time>
  <eigenvalues>
   <array>
    <dimension dim="1">band</dimension>
    <dimension dim="2">kpoint</dimension>
    <dimension dim="3">spin</dimension>
    <field>eigene</field>
    <field>occ</field>
    <set>
     <set comment="spin 1">
      <set comment="kpoint 1">
       <r>  -41.8372    1.0000 </r>
       <r>  -41.8233    1.0000 </r>
       <r>  -41.6844    1.0000 </r>
       <r>  -41.6844    1.0000 </r>
       <r>  -41.6832    1.0000 </r>
       <r>  -41.6832    1.0000 </r>
       <r>   -6.3646    1.0000 </r>
       <r>   -5.2324    1.0000 </r>
       <r>    0.5424    1.0000 </r>
       <r>    3.3140    1.0000 </r>
       <r>    3.3140    1.0000 </r>
       <r>    4.6998    1.0000 </r>
       <r>    5.2396    1.0000 </r>
       <r>    5.2396    1.0000 </r>
       <r>    5.2437    1.0000 </r>
       <r>    5.2437    1.0000 </r>
       <r>    5.3521    1.0000 </r>
       <r>    5.3521    1.0000 </r>
       <r>    5.4161    1.0000 </r>
       <r>    5.7726    0.9446 </r>
       <r>    5.7726    0.9446 </r>
       <r>    6.3175    0.0000 </r>
       <r>    7.8164    0.0000 </r>
       <r>    7.8164    0.0000 </r>
      </set>
      <set comment="kpoint 2">
       <r>  -41.8371    1.0000 </r>
       <r>  -41.8233    1.0000 </r>
       <r>  -41.6849    1.0000 </r>
       <r>  -41.6846    1.0000 </r>
       <r>  -41.6836    1.0000 </r>
       <r>  -41.6833    1.0000 </r>
       <r>   -6.0817    1.0000 </r>
       <r>   -5.1262    1.0000 </r>
       <r>    0.9708    1.0000 </r>
       <r>    2.6893    1.0000 </r>
       <r>    3.1120    1.0000 </r>
       <r>    3.2983    1.0000 </r>
       <r>    4.2299    1.0000 </r>
       <r>    4.2995    1.0000 </r>
       <r>    4.8195    1.0000 </r>
       <r>    5.4621    1.0000 </r>
       <r>    5.5524    1.0000 </r>
       <r>    5.6754    1.0000 </r>
       <r>    5.7781    0.9251 </r>
       <r>    5.8399    0.3787 </r>
       <r>    6.2760    0.0000 </r>
       <r>    6.6744    0.0000 </r>
       <r>    6.7527    0.0000 </r>
       <r>    7.6438    0.0000 </r>
      </set>
      <set comment="kpoint 3">
       <r>  -41.8370    1.0000 </r>
       <r>  -41.8232    1.0000 </r>
       <r>  -41.6856    1.0000 </r>
       <r>  -41.6848    1.0000 </r>
       <r>  -41.6843    1.0000 </r>
       <r>  -41.6835    1.0000 </r>
       <r>   -5.4497    1.0000 </r>
       <r>   -5.0188    1.0000 </r>
       <r>    0.9955    1.0000 </r>
       <r>    2.0923    1.0000 </r>
       <r>    2.1289    1.0000 </r>
       <r>    3.2817    1.0000 </r>
       <r>    3.2910    1.0000 </r>
       <r>    3.6699    1.0000 </r>
       <r>    4.7073    1.0000 </r>
       <r>    5.5466    1.0000 </r>
       <r>    5.6062    1.0000 </r>
       <r>    5.6873    1.0000 </r>
       <r>    5.7649    0.9652 </r>
       <r>    5.8509    0.2683 </r>
       <r>    6.0195    0.0000 </r>
       <r>    6.2008    0.0000 </r>
       <r>    6.9657    0.0000 </r>
       <r>    7.7623    0.0000 </r>
      </set>
      <set comment="kpoint 4">
       <r>  -41.8370    1.0000 </r>
       <r>  -41.8232    1.0000 </r>
       <r>  -41.6853    1.0000 </r>
       <r>  -41.6848    1.0000 </r>
       <r>  -41.6840    1.0000 </r>
       <r>  -41.6836    1.0000 </r>
       <r>   -5.6171    1.0000 </r>
       <r>   -5.0066    1.0000 </r>
       <r>    1.6507    1.0000 </r>
       <r>    1.7481    1.0000 </r>
       <r>    2.2203    1.0000 </r>
       <r>    2.9056    1.0000 </r>
       <r>    3.4348    1.0000 </r>
       <r>    3.5808    1.0000 </r>
       <r>    5.0260    1.0000 </r>
       <r>    5.6045    1.0000 </r>
       <r>    5.6335    1.0000 </r>
       <r>    5.7235    0.9986 </r>
       <r>    5.8077    0.7266 </r>
       <r>    5.8180    0.6226 </r>
       <r>    6.1674    0.0000 </r>
       <r>    6.7160    0.0000 </r>
       <r>    6.7255    0.0000 </r>
       <r>    7.0538    0.0000 </r>
      </set>
      <set comment="kpoint 5">
       <r>  -41.8369    1.0000 </r>
       <r>  -41.8231    1.0000 </r>
       <r>  -41.6855    1.0000 </r>
       <r>  -41.6850    1.0000 </r>
       <r>  -41.6842    1.0000 </r>
       <r>  -41.6837    1.0000 </r>
       <r>   -5.1719    1.0000 </r>
       <r>   -5.0291    1.0000 </r>
       <r>    0.8554    1.0000 </r>
       <r>    2.0938    1.0000 </r>
       <r>    2.4804    1.0000 </r>
       <r>    2.7334    1.0000 </r>
       <r>    2.9557    1.0000 </r>
       <r>    3.0163    1.0000 </r>
       <r>    5.1723    1.0000 </r>
       <r>    5.5623    1.0000 </r>
       <r>    5.6928    0.9999 </r>
       <r>    5.6972    0.9999 </r>
       <r>    5.6998    0.9999 </r>
       <r>    5.8509    0.2676 </r>
       <r>    5.9817    0.0000 </r>
       <r>    6.3955    0.0000 </r>
       <r>    6.7455    0.0000 </r>
       <r>    6.7904    0.0000 </r>
      </set>
      <set comment="kpoint 6">
       <r>  -41.8352    1.0000 </r>
       <r>  -41.8254    1.0000 </r>
       <r>  -41.6843    1.0000 </r>
       <r>  -41.6843    1.0000 </r>
       <r>  -41.6834    1.0000 </r>
       <r>  -41.6834    1.0000 </r>
       <r>   -6.2338    1.0000 </r>
       <r>   -5.4471    1.0000 </r>
       <r>    1.0638    1.0000 </r>
       <r>    3.4533    1.0000 </r>
       <r>    3.4533    1.0000 </r>
       <r>    4.0029    1.0000 </r>
       <r>    4.4977    1.0000 </r>
       <r>    4.4977    1.0000 </r>
       <r>    5.1689    1.0000 </r>
       <r>    5.3031    1.0000 </r>
       <r>    5.3031    1.0000 </r>
       <r>    5.6284    1.0000 </r>
       <r>    5.6284    1.0000 </r>
       <r>    6.0431    0.0000 </r>
       <r>    6.2441    0.0000 </r>
       <r>    6.2441    0.0000 </r>
       <r>    7.6205    0.0000 </r>
       <r>    7.6205    0.0000 </r>
      </set>
      <set comment="kpoint 7">
       <r>  -41.8351    1.0000 </r>
       <r>  -41.8253    1.0000 </r>
       <r>  -41.6847    1.0000 </r>
       <r>  -41.6844    1.0000 </r>
       <r>  -41.6838    1.0000 </r>
       <r>  -41.6835    1.0000 </r>
       <r>   -5.9662    1.0000 </r>
       <r>   -5.2982    1.0000 </r>
       <r>    1.3079    1.0000 </r>
       <r>    2.7250    1.0000 </r>
       <r>    2.9726    1.0000 </r>
       <r>    3.4070    1.0000 </r>
       <r>    3.9945    1.0000 </r>
       <r>    4.0925    1.0000 </r>
       <r>    5.0436    1.0000 </r>
       <r>    5.4255    1.0000 </r>
       <r>    5.5361    1.0000 </r>
       <r>    5.6660    1.0000 </r>
       <r>    5.8172    0.6312 </r>
       <r>    6.1015    0.0000 </r>
       <r>    6.1541    0.0000 </r>
       <r>    6.2504    0.0000 </r>
       <r>    6.7487    0.0000 </r>
       <r>    7.4101    0.0000 </r>
      </set>
      <set comment="kpoint 8">
       <r>  -41.8350    1.0000 </r>
       <r>  -41.8252    1.0000 </r>
       <r>  -41.6854    1.0000 </r>
       <r>  -41.6846    1.0000 </r>
       <r>  -41.6844    1.0000 </r>
       <r>  -41.6837    1.0000 </r>
       <r>   -5.3883    1.0000 </r>
       <r>   -5.0832    1.0000 </r>
       <r>    0.9500    1.0000 </r>
       <r>    1.5433    1.0000 </r>
       <r>    2.7322    1.0000 </r>
       <r>    3.3305    1.0000 </r>
       <r>    3.4399    1.0000 </r>
       <r>    3.6018    1.0000 </r>
       <r>    4.8587    1.0000 </r>
       <r>    5.4557    1.0000 </r>
       <r>    5.6528    1.0000 </r>
       <r>    5.7391    0.9945 </r>
       <r>    5.7927    0.8476 </r>
       <r>    5.9401    0.0008 </r>
       <r>    5.9825    0.0000 </r>
       <r>    6.2902    0.0000 </r>
       <r>    7.1147    0.0000 </r>
       <r>    7.2884    0.0000 </r>
      </set>
      <set comment="kpoint 9">
       <r>  -41.8350    1.0000 </r>
       <r>  -41.8252    1.0000 </r>
       <r>  -41.6851    1.0000 </r>
       <r>  -41.6846    1.0000 </r>
       <r>  -41.6842    1.0000 </r>
       <r>  -41.6837    1.0000 </r>
       <r>   -5.5357    1.0000 </r>
       <r>   -5.1051    1.0000 </r>
       <r>    1.5235    1.0000 </r>
       <r>    1.6099    1.0000 </r>
       <r>    2.7744    1.0000 </r>
       <r>    2.8748    1.0000 </r>
       <r>    3.3082    1.0000 </r>
       <r>    3.6091    1.0000 </r>
       <r>    5.1634    1.0000 </r>
       <r>    5.4212    1.0000 </r>
       <r>    5.5667    1.0000 </r>
       <r>    5.7393    0.9944 </r>
       <r>    5.7655    0.9638 </r>
       <r>    5.9861    0.0000 </r>
       <r>    6.1014    0.0000 </r>
       <r>    6.4085    0.0000 </r>
       <r>    6.5774    0.0000 </r>
       <r>    7.3139    0.0000 </r>
      </set>
      <set comment="kpoint 10">
       <r>  -41.8349    1.0000 </r>
       <r>  -41.8252    1.0000 </r>
       <r>  -41.6854    1.0000 </r>
       <r>  -41.6848    1.0000 </r>
       <r>  -41.6844    1.0000 </r>
       <r>  -41.6839    1.0000 </r>
       <r>   -5.1478    1.0000 </r>
       <r>   -5.0464    1.0000 </r>
       <r>    0.9342    1.0000 </r>
       <r>    1.6751    1.0000 </r>
       <r>    2.2932    1.0000 </r>
       <r>    2.8092    1.0000 </r>
       <r>    3.1406    1.0000 </r>
       <r>    3.2763    1.0000 </r>
       <r>    5.2303    1.0000 </r>
       <r>    5.5012    1.0000 </r>
       <r>    5.5989    1.0000 </r>
       <r>    5.7445    0.9916 </r>
       <r>    5.7981    0.8093 </r>
       <r>    5.8441    0.3346 </r>
       <r>    5.9358    0.0013 </r>
       <r>    6.3971    0.0000 </r>
       <r>    6.7255    0.0000 </r>
       <r>    7.1307    0.0000 </r>
      </set>
      <set comment="kpoint 11">
       <r>  -41.8303    1.0000 </r>
       <r>  -41.8303    1.0000 </r>
       <r>  -41.6838    1.0000 </r>
       <r>  -41.6838    1.0000 </r>
       <r>  -41.6838    1.0000 </r>
       <r>  -41.6838    1.0000 </r>
       <r>   -5.8795    1.0000 </r>
       <r>   -5.8795    1.0000 </r>
       <r>    2.3800    1.0000 </r>
       <r>    2.3800    1.0000 </r>
       <r>    3.8596    1.0000 </r>
       <r>    3.8596    1.0000 </r>
       <r>    3.8596    1.0000 </r>
       <r>    3.8596    1.0000 </r>
       <r>    5.4636    1.0000 </r>
       <r>    5.4636    1.0000 </r>
       <r>    5.4636    1.0000 </r>
       <r>    5.4636    1.0000 </r>
       <r>    5.5288    1.0000 </r>
       <r>    5.5288    1.0000 </r>
       <r>    7.0544    0.0000 </r>
       <r>    7.0544    0.0000 </r>
       <r>    7.0544    0.0000 </r>
       <r>    7.0544    0.0000 </r>
      </set>
      <set comment="kpoint 12">
       <r>  -41.8302    1.0000 </r>
       <r>  -41.8302    1.0000 </r>
       <r>  -41.6843    1.0000 </r>
       <r>  -41.6843    1.0000 </r>
       <r>  -41.6839    1.0000 </r>
       <r>  -41.6839    1.0000 </r>
       <r>   -5.6591    1.0000 </r>
       <r>   -5.6591    1.0000 </r>
       <r>    2.0553    1.0000 </r>
       <r>    2.0553    1.0000 </r>
       <r>    3.4746    1.0000 </r>
       <r>    3.4746    1.0000 </r>
       <r>    3.7065    1.0000 </r>
       <r>    3.7065    1.0000 </r>
       <r>    5.3233    1.0000 </r>
       <r>    5.3233    1.0000 </r>
       <r>    5.5195    1.0000 </r>
       <r>    5.5195    1.0000 </r>
       <r>    5.8407    0.3700 </r>
       <r>    5.8407    0.3700 </r>
       <r>    6.3404    0.0000 </r>
       <r>    6.3404    0.0000 </r>
       <r>    6.8670    0.0000 </r>
       <r>    6.8670    0.0000 </r>
      </set>
      <set comment="kpoint 13">
       <r>  -41.8301    1.0000 </r>
       <r>  -41.8301    1.0000 </r>
       <r>  -41.6849    1.0000 </r>
       <r>  -41.6849    1.0000 </r>
       <r>  -41.6841    1.0000 </r>
       <r>  -41.6841    1.0000 </r>
       <r>   -5.2372    1.0000 </r>
       <r>   -5.2372    1.0000 </r>
       <r>    1.0905    1.0000 </r>
       <r>    1.0905    1.0000 </r>
       <r>    3.3225    1.0000 </r>
       <r>    3.3225    1.0000 </r>
       <r>    3.4571    1.0000 </r>
       <r>    3.4571    1.0000 </r>
       <r>    5.1970    1.0000 </r>
       <r>    5.1970    1.0000 </r>
       <r>    5.7295    0.9976 </r>
       <r>    5.7295    0.9976 </r>
       <r>    5.8214    0.5851 </r>
       <r>    5.8214    0.5851 </r>
       <r>    6.5276    0.0000 </r>
       <r>    6.5276    0.0000 </r>
       <r>    6.6657    0.0000 </r>
       <r>    6.6657    0.0000 </r>
      </set>
      <set comment="kpoint 14">
       <r>  -41.8301    1.0000 </r>
       <r>  -41.8301    1.0000 </r>
       <r>  -41.6847    1.0000 </r>
       <r>  -41.6847    1.0000 </r>
       <r>  -41.6842    1.0000 </r>
       <r>  -41.6842    1.0000 </r>
       <r>   -5.3289    1.0000 </r>
       <r>   -5.3289    1.0000 </r>
       <r>    1.4969    1.0000 </r>
       <r>    1.4969    1.0000 </r>
       <r>    3.0197    1.0000 </r>
       <r>    3.0197    1.0000 </r>
       <r>    3.4332    1.0000 </r>
       <r>    3.4332    1.0000 </r>
       <r>    5.3246    1.0000 </r>
       <r>    5.3246    1.0000 </r>
       <r>    5.5855    1.0000 </r>
       <r>    5.5855    1.0000 </r>
       <r>    5.8774    0.0854 </r>
       <r>    5.8774    0.0854 </r>
       <r>    6.1095    0.0000 </r>
       <r>    6.1095    0.0000 </r>
       <r>    6.9273    0.0000 </r>
       <r>    6.9273    0.0000 </r>
      </set>
      <set comment="kpoint 15">
       <r>  -41.8301    1.0000 </r>
       <r>  -41.8301    1.0000 </r>
       <r>  -41.6849    1.0000 </r>
       <r>  -41.6849    1.0000 </r>
       <r>  -41.6844    1.0000 </r>
       <r>  -41.6844    1.0000 </r>
       <r>   -5.0937    1.0000 </r>
       <r>   -5.0937    1.0000 </r>
       <r>    1.1923    1.0000 </r>
       <r>    1.1923    1.0000 </r>
       <r>    2.4337    1.0000 </r>
       <r>    2.4337    1.0000 </r>
       <r>    3.4306    1.0000 </r>
       <r>    3.4306    1.0000 </r>
       <r>    5.3648    1.0000 </r>
       <r>    5.3648    1.0000 </r>
       <r>    5.6588    1.0000 </r>
       <r>    5.6588    1.0000 </r>
       <r>    5.8222    0.5759 </r>
       <r>    5.8222    0.5759 </r>
       <r>    6.0899    0.0000 </r>
       <r>    6.0899    0.0000 </r>
       <r>    7.3982    0.0000 </r>
       <r>    7.3982    0.0000 </r>
      </set>
     </set>
    </set>
   </array>
  </eigenvalues>
  <separator name="orbital magnetization" >
   <v name="MAGDIPOLOUT">      0.00000000      0.00000000      0.00000000</v>
  </separator>
  <dos>
   <i name="efermi">      5.82901145 </i>
   <total>
    <array>
     <dimension dim="1">gridpoints</dimension>
     <dimension dim="2">spin</dimension>
     <field>energy</field>
     <field>total</field>
     <field>integrated</field>
     <set>
      <set comment="spin 1">
       <r>   -44.3199     0.0000     0.0000 </r>
       <r>   -44.1378     0.0000     0.0000 </r>
       <r>   -43.9557     0.0000     0.0000 </r>
       <r>   -43.7737     0.0000     0.0000 </r>
       <r>   -43.5916     0.0000     0.0000 </r>
       <r>   -43.4096     0.0000     0.0000 </r>
       <r>   -43.2275     0.0000     0.0000 </r>
       <r>   -43.0454     0.0000     0.0000 </r>
       <r>   -42.8634     0.0000     0.0000 </r>
       <r>   -42.6813     0.0000     0.0000 </r>
       <r>   -42.4992     0.0000     0.0000 </r>
       <r>   -42.3172     0.0000     0.0000 </r>
       <r>   -42.1351     0.0000     0.0000 </r>
       <r>   -41.9530     0.0063     0.0011 </r>
       <r>   -41.7710    21.2069     3.8621 </r>
       <r>   -41.5889    44.5457    11.9723 </r>
       <r>   -41.4069     0.1524    12.0000 </r>
       <r>   -41.2248     0.0000    12.0000 </r>
       <r>   -41.0427     0.0000    12.0000 </r>
       <r>   -40.8607     0.0000    12.0000 </r>
       <r>   -40.6786     0.0000    12.0000 </r>
       <r>   -40.4965     0.0000    12.0000 </r>
       <r>   -40.3145     0.0000    12.0000 </r>
       <r>   -40.1324     0.0000    12.0000 </r>
       <r>   -39.9504     0.0000    12.0000 </r>
       <r>   -39.7683     0.0000    12.0000 </r>
       <r>   -39.5862     0.0000    12.0000 </r>
       <r>   -39.4042     0.0000    12.0000 </r>
       <r>   -39.2221     0.0000    12.0000 </r>
       <r>   -39.0400     0.0000    12.0000 </r>
       <r>   -38.8580     0.0000    12.0000 </r>
       <r>   -38.6759     0.0000    12.0000 </r>
       <r>   -38.4938     0.0000    12.0000 </r>
       <r>   -38.3118     0.0000    12.0000 </r>
       <r>   -38.1297     0.0000    12.0000 </r>
       <r>   -37.9477     0.0000    12.0000 </r>
       <r>   -37.7656     0.0000    12.0000 </r>
       <r>   -37.5835     0.0000    12.0000 </r>
       <r>   -37.4015     0.0000    12.0000 </r>
       <r>   -37.2194     0.0000    12.0000 </r>
       <r>   -37.0373     0.0000    12.0000 </r>
       <r>   -36.8553     0.0000    12.0000 </r>
       <r>   -36.6732     0.0000    12.0000 </r>
       <r>   -36.4912     0.0000    12.0000 </r>
       <r>   -36.3091     0.0000    12.0000 </r>
       <r>   -36.1270     0.0000    12.0000 </r>
       <r>   -35.9450     0.0000    12.0000 </r>
       <r>   -35.7629     0.0000    12.0000 </r>
       <r>   -35.5808     0.0000    12.0000 </r>
       <r>   -35.3988     0.0000    12.0000 </r>
       <r>   -35.2167     0.0000    12.0000 </r>
       <r>   -35.0346     0.0000    12.0000 </r>
       <r>   -34.8526     0.0000    12.0000 </r>
       <r>   -34.6705     0.0000    12.0000 </r>
       <r>   -34.4885     0.0000    12.0000 </r>
       <r>   -34.3064     0.0000    12.0000 </r>
       <r>   -34.1243     0.0000    12.0000 </r>
       <r>   -33.9423     0.0000    12.0000 </r>
       <r>   -33.7602     0.0000    12.0000 </r>
       <r>   -33.5781     0.0000    12.0000 </r>
       <r>   -33.3961     0.0000    12.0000 </r>
       <r>   -33.2140     0.0000    12.0000 </r>
       <r>   -33.0320     0.0000    12.0000 </r>
       <r>   -32.8499     0.0000    12.0000 </r>
       <r>   -32.6678     0.0000    12.0000 </r>
       <r>   -32.4858     0.0000    12.0000 </r>
       <r>   -32.3037     0.0000    12.0000 </r>
       <r>   -32.1216     0.0000    12.0000 </r>
       <r>   -31.9396     0.0000    12.0000 </r>
       <r>   -31.7575     0.0000    12.0000 </r>
       <r>   -31.5754     0.0000    12.0000 </r>
       <r>   -31.3934     0.0000    12.0000 </r>
       <r>   -31.2113     0.0000    12.0000 </r>
       <r>   -31.0293     0.0000    12.0000 </r>
       <r>   -30.8472     0.0000    12.0000 </r>
       <r>   -30.6651     0.0000    12.0000 </r>
       <r>   -30.4831     0.0000    12.0000 </r>
       <r>   -30.3010     0.0000    12.0000 </r>
       <r>   -30.1189     0.0000    12.0000 </r>
       <r>   -29.9369     0.0000    12.0000 </r>
       <r>   -29.7548     0.0000    12.0000 </r>
       <r>   -29.5728     0.0000    12.0000 </r>
       <r>   -29.3907     0.0000    12.0000 </r>
       <r>   -29.2086     0.0000    12.0000 </r>
       <r>   -29.0266     0.0000    12.0000 </r>
       <r>   -28.8445     0.0000    12.0000 </r>
       <r>   -28.6624     0.0000    12.0000 </r>
       <r>   -28.4804     0.0000    12.0000 </r>
       <r>   -28.2983     0.0000    12.0000 </r>
       <r>   -28.1162     0.0000    12.0000 </r>
       <r>   -27.9342     0.0000    12.0000 </r>
       <r>   -27.7521     0.0000    12.0000 </r>
       <r>   -27.5701     0.0000    12.0000 </r>
       <r>   -27.3880     0.0000    12.0000 </r>
       <r>   -27.2059     0.0000    12.0000 </r>
       <r>   -27.0239     0.0000    12.0000 </r>
       <r>   -26.8418     0.0000    12.0000 </r>
       <r>   -26.6597     0.0000    12.0000 </r>
       <r>   -26.4777     0.0000    12.0000 </r>
       <r>   -26.2956     0.0000    12.0000 </r>
       <r>   -26.1136     0.0000    12.0000 </r>
       <r>   -25.9315     0.0000    12.0000 </r>
       <r>   -25.7494     0.0000    12.0000 </r>
       <r>   -25.5674     0.0000    12.0000 </r>
       <r>   -25.3853     0.0000    12.0000 </r>
       <r>   -25.2032     0.0000    12.0000 </r>
       <r>   -25.0212     0.0000    12.0000 </r>
       <r>   -24.8391     0.0000    12.0000 </r>
       <r>   -24.6571     0.0000    12.0000 </r>
       <r>   -24.4750     0.0000    12.0000 </r>
       <r>   -24.2929     0.0000    12.0000 </r>
       <r>   -24.1109     0.0000    12.0000 </r>
       <r>   -23.9288     0.0000    12.0000 </r>
       <r>   -23.7467     0.0000    12.0000 </r>
       <r>   -23.5647     0.0000    12.0000 </r>
       <r>   -23.3826     0.0000    12.0000 </r>
       <r>   -23.2005     0.0000    12.0000 </r>
       <r>   -23.0185     0.0000    12.0000 </r>
       <r>   -22.8364     0.0000    12.0000 </r>
       <r>   -22.6544     0.0000    12.0000 </r>
       <r>   -22.4723     0.0000    12.0000 </r>
       <r>   -22.2902     0.0000    12.0000 </r>
       <r>   -22.1082     0.0000    12.0000 </r>
       <r>   -21.9261     0.0000    12.0000 </r>
       <r>   -21.7440     0.0000    12.0000 </r>
       <r>   -21.5620     0.0000    12.0000 </r>
       <r>   -21.3799     0.0000    12.0000 </r>
       <r>   -21.1979     0.0000    12.0000 </r>
       <r>   -21.0158     0.0000    12.0000 </r>
       <r>   -20.8337     0.0000    12.0000 </r>
       <r>   -20.6517     0.0000    12.0000 </r>
       <r>   -20.4696     0.0000    12.0000 </r>
       <r>   -20.2875     0.0000    12.0000 </r>
       <r>   -20.1055     0.0000    12.0000 </r>
       <r>   -19.9234     0.0000    12.0000 </r>
       <r>   -19.7413     0.0000    12.0000 </r>
       <r>   -19.5593     0.0000    12.0000 </r>
       <r>   -19.3772     0.0000    12.0000 </r>
       <r>   -19.1952     0.0000    12.0000 </r>
       <r>   -19.0131     0.0000    12.0000 </r>
       <r>   -18.8310     0.0000    12.0000 </r>
       <r>   -18.6490     0.0000    12.0000 </r>
       <r>   -18.4669     0.0000    12.0000 </r>
       <r>   -18.2848     0.0000    12.0000 </r>
       <r>   -18.1028     0.0000    12.0000 </r>
       <r>   -17.9207     0.0000    12.0000 </r>
       <r>   -17.7387     0.0000    12.0000 </r>
       <r>   -17.5566     0.0000    12.0000 </r>
       <r>   -17.3745     0.0000    12.0000 </r>
       <r>   -17.1925     0.0000    12.0000 </r>
       <r>   -17.0104     0.0000    12.0000 </r>
       <r>   -16.8283     0.0000    12.0000 </r>
       <r>   -16.6463     0.0000    12.0000 </r>
       <r>   -16.4642     0.0000    12.0000 </r>
       <r>   -16.2821     0.0000    12.0000 </r>
       <r>   -16.1001     0.0000    12.0000 </r>
       <r>   -15.9180     0.0000    12.0000 </r>
       <r>   -15.7360     0.0000    12.0000 </r>
       <r>   -15.5539     0.0000    12.0000 </r>
       <r>   -15.3718     0.0000    12.0000 </r>
       <r>   -15.1898     0.0000    12.0000 </r>
       <r>   -15.0077     0.0000    12.0000 </r>
       <r>   -14.8256     0.0000    12.0000 </r>
       <r>   -14.6436     0.0000    12.0000 </r>
       <r>   -14.4615     0.0000    12.0000 </r>
       <r>   -14.2795     0.0000    12.0000 </r>
       <r>   -14.0974     0.0000    12.0000 </r>
       <r>   -13.9153     0.0000    12.0000 </r>
       <r>   -13.7333     0.0000    12.0000 </r>
       <r>   -13.5512     0.0000    12.0000 </r>
       <r>   -13.3691     0.0000    12.0000 </r>
       <r>   -13.1871     0.0000    12.0000 </r>
       <r>   -13.0050     0.0000    12.0000 </r>
       <r>   -12.8229     0.0000    12.0000 </r>
       <r>   -12.6409     0.0000    12.0000 </r>
       <r>   -12.4588     0.0000    12.0000 </r>
       <r>   -12.2768     0.0000    12.0000 </r>
       <r>   -12.0947     0.0000    12.0000 </r>
       <r>   -11.9126     0.0000    12.0000 </r>
       <r>   -11.7306     0.0000    12.0000 </r>
       <r>   -11.5485     0.0000    12.0000 </r>
       <r>   -11.3664     0.0000    12.0000 </r>
       <r>   -11.1844     0.0000    12.0000 </r>
       <r>   -11.0023     0.0000    12.0000 </r>
       <r>   -10.8203     0.0000    12.0000 </r>
       <r>   -10.6382     0.0000    12.0000 </r>
       <r>   -10.4561     0.0000    12.0000 </r>
       <r>   -10.2741     0.0000    12.0000 </r>
       <r>   -10.0920     0.0000    12.0000 </r>
       <r>    -9.9099     0.0000    12.0000 </r>
       <r>    -9.7279     0.0000    12.0000 </r>
       <r>    -9.5458     0.0000    12.0000 </r>
       <r>    -9.3637     0.0000    12.0000 </r>
       <r>    -9.1817     0.0000    12.0000 </r>
       <r>    -8.9996     0.0000    12.0000 </r>
       <r>    -8.8176     0.0000    12.0000 </r>
       <r>    -8.6355     0.0000    12.0000 </r>
       <r>    -8.4534     0.0000    12.0000 </r>
       <r>    -8.2714     0.0000    12.0000 </r>
       <r>    -8.0893     0.0000    12.0000 </r>
       <r>    -7.9072     0.0000    12.0000 </r>
       <r>    -7.7252     0.0000    12.0000 </r>
       <r>    -7.5431     0.0000    12.0000 </r>
       <r>    -7.3611     0.0000    12.0000 </r>
       <r>    -7.1790     0.0000    12.0000 </r>
       <r>    -6.9969     0.0000    12.0000 </r>
       <r>    -6.8149     0.0000    12.0000 </r>
       <r>    -6.6328     0.0000    12.0000 </r>
       <r>    -6.4507     0.0008    12.0001 </r>
       <r>    -6.2687     0.1442    12.0264 </r>
       <r>    -6.0866     0.4784    12.1135 </r>
       <r>    -5.9045     1.6825    12.4198 </r>
       <r>    -5.7225     0.2698    12.4689 </r>
       <r>    -5.5404     2.5115    12.9262 </r>
       <r>    -5.3584     2.9916    13.4708 </r>
       <r>    -5.1763     4.6155    14.3112 </r>
       <r>    -4.9942     8.6643    15.8886 </r>
       <r>    -4.8122     0.6119    16.0000 </r>
       <r>    -4.6301     0.0000    16.0000 </r>
       <r>    -4.4480     0.0000    16.0000 </r>
       <r>    -4.2660     0.0000    16.0000 </r>
       <r>    -4.0839     0.0000    16.0000 </r>
       <r>    -3.9019     0.0000    16.0000 </r>
       <r>    -3.7198     0.0000    16.0000 </r>
       <r>    -3.5377     0.0000    16.0000 </r>
       <r>    -3.3557     0.0000    16.0000 </r>
       <r>    -3.1736     0.0000    16.0000 </r>
       <r>    -2.9915     0.0000    16.0000 </r>
       <r>    -2.8095     0.0000    16.0000 </r>
       <r>    -2.6274     0.0000    16.0000 </r>
       <r>    -2.4453     0.0000    16.0000 </r>
       <r>    -2.2633     0.0000    16.0000 </r>
       <r>    -2.0812     0.0000    16.0000 </r>
       <r>    -1.8992     0.0000    16.0000 </r>
       <r>    -1.7171     0.0000    16.0000 </r>
       <r>    -1.5350     0.0000    16.0000 </r>
       <r>    -1.3530     0.0000    16.0000 </r>
       <r>    -1.1709     0.0000    16.0000 </r>
       <r>    -0.9888     0.0000    16.0000 </r>
       <r>    -0.8068     0.0000    16.0000 </r>
       <r>    -0.6247     0.0000    16.0000 </r>
       <r>    -0.4427     0.0000    16.0000 </r>
       <r>    -0.2606     0.0000    16.0000 </r>
       <r>    -0.0785     0.0000    16.0000 </r>
       <r>     0.1035     0.0000    16.0000 </r>
       <r>     0.2856     0.0000    16.0000 </r>
       <r>     0.4677     0.0019    16.0003 </r>
       <r>     0.6497     0.1078    16.0200 </r>
       <r>     0.8318     0.1691    16.0508 </r>
       <r>     1.0138     4.1466    16.8057 </r>
       <r>     1.1959     2.5482    17.2696 </r>
       <r>     1.3780     1.8936    17.6144 </r>
       <r>     1.5600     3.4276    18.2384 </r>
       <r>     1.7421     4.0972    18.9844 </r>
       <r>     1.9242     0.4154    19.0600 </r>
       <r>     2.1062     2.2422    19.4683 </r>
       <r>     2.2883     2.2813    19.8836 </r>
       <r>     2.4704     2.3442    20.3104 </r>
       <r>     2.6524     0.7502    20.4470 </r>
       <r>     2.8345     6.2482    21.5845 </r>
       <r>     3.0165     4.9264    22.4814 </r>
       <r>     3.1986     3.1376    23.0527 </r>
       <r>     3.3807     7.9277    24.4960 </r>
       <r>     3.5627     9.0826    26.1496 </r>
       <r>     3.7448     4.5862    26.9846 </r>
       <r>     3.9269     0.6615    27.1050 </r>
       <r>     4.1089     2.4043    27.5428 </r>
       <r>     4.2910     1.3222    27.7835 </r>
       <r>     4.4730     0.5270    27.8794 </r>
       <r>     4.6551     0.3902    27.9505 </r>
       <r>     4.8372     1.5255    28.2282 </r>
       <r>     5.0192     1.7670    28.5499 </r>
       <r>     5.2013     4.2594    29.3254 </r>
       <r>     5.3834     6.8388    30.5705 </r>
       <r>     5.5654    11.7288    32.7059 </r>
       <r>     5.7475    17.9850    35.9803 </r>
       <r>     5.9296    19.1596    39.4685 </r>
       <r>     6.1116     9.1179    41.1286 </r>
       <r>     6.2937     7.3520    42.4671 </r>
       <r>     6.4757     5.5975    43.4862 </r>
       <r>     6.6578     3.4424    44.1129 </r>
       <r>     6.8399     7.3020    45.4424 </r>
       <r>     7.0219     3.2281    46.0301 </r>
       <r>     7.2040     3.5495    46.6763 </r>
       <r>     7.3861     3.4345    47.3016 </r>
       <r>     7.5681     1.8997    47.6475 </r>
       <r>     7.7502     1.3042    47.8849 </r>
       <r>     7.9322     0.6319    48.0000 </r>
       <r>     8.1143     0.0001    48.0000 </r>
       <r>     8.2964     0.0000    48.0000 </r>
       <r>     8.4784     0.0000    48.0000 </r>
       <r>     8.6605     0.0000    48.0000 </r>
       <r>     8.8426     0.0000    48.0000 </r>
       <r>     9.0246     0.0000    48.0000 </r>
       <r>     9.2067     0.0000    48.0000 </r>
       <r>     9.3888     0.0000    48.0000 </r>
       <r>     9.5708     0.0000    48.0000 </r>
       <r>     9.7529     0.0000    48.0000 </r>
       <r>     9.9349     0.0000    48.0000 </r>
       <r>    10.1170     0.0000    48.0000 </r>
       <r>    10.2991     0.0000    48.0000 </r>
      </set>
     </set>
    </array>
   </total>
  </dos>
 </calculation>
 <structure name="finalpos" >
  <crystal>
   <varray name="basis" >
    <v>       4.17349005       0.00000000       0.00000000 </v>
    <v>      -2.08674502       3.61434840       0.00000000 </v>
    <v>       0.00000000       0.00000000       6.75345135 </v>
   </varray>
   <i name="volume">    101.87207953 </i>
   <varray name="rec_basis" >
    <v>       0.23960762       0.13833752       0.00000000 </v>
    <v>       0.00000000       0.27667504       0.00000000 </v>
    <v>       0.00000000       0.00000000       0.14807244 </v>
   </varray>
  </crystal>
  <varray name="positions" >
   <v>       0.00000000       0.00000000       0.00000000 </v>
   <v>       0.00000000       0.00000000       0.50000000 </v>
   <v>       0.33333334       0.66666669       0.25000000 </v>
   <v>       0.66666666       0.33333331       0.75000000 </v>
  </varray>
 </structure>
</modeling>
