    4    4    1    2
  0.2546802E+02  0.4173490E-09  0.4173490E-09  0.6753451E-09  0.5000000E-15
  1.000000000000000E-004
  CAR 
 unknown system                          
     38     40     24
 
 -0.5000000E+00  0.0000000E+00  0.5000000E+00  0.2500000E-01
      1        -44.232217      -44.232217   1.000000   1.000000
      2        -44.231489      -44.231489   1.000000   1.000000
      3        -44.228141      -44.228141   1.000000   1.000000
      4        -39.850379      -39.850379   1.000000   1.000000
      5        -39.845042      -39.845042   1.000000   1.000000
      6        -39.843952      -39.843952   1.000000   1.000000
      7         -4.699106       -4.699106   1.000000   1.000000
      8         -4.674327       -4.674327   1.000000   1.000000
      9          0.881565        0.881565   1.000000   1.000000
     10          1.153435        1.153435   1.000000   1.000000
     11          2.602378        2.602378   1.000000   1.000000
     12          2.631482        2.631482   1.000000   1.000000
     13          3.245110        3.245110   1.000000   1.000000
     14          3.477446        3.477446   1.000000   1.000000
     15          3.610308        3.610308   1.000000   1.000000
     16          3.752205        3.752205   1.000000   1.000000
     17          3.886461        3.886461   1.000000   1.000000
     18          5.440290        5.440290   1.000000   1.000000
     19          5.666916        5.666916   1.000000   1.000000
     20          6.540743        6.540743   0.023821   0.023821
     21          7.388606        7.388606   0.000000   0.000000
     22          7.451609        7.451609   0.000000   0.000000
     23          7.745032        7.745032   0.000000   0.000000
     24          8.010613        8.011365   0.000000   0.000000
 
 -0.4736842E+00  0.0000000E+00  0.5000000E+00  0.2500000E-01
      1        -44.232206      -44.232206   1.000000   1.000000
      2        -44.231488      -44.231488   1.000000   1.000000
      3        -44.228149      -44.228149   1.000000   1.000000
      4        -39.850388      -39.850388   1.000000   1.000000
      5        -39.845025      -39.845025   1.000000   1.000000
      6        -39.843950      -39.843950   1.000000   1.000000
      7         -4.705560       -4.705560   1.000000   1.000000
      8         -4.681302       -4.681302   1.000000   1.000000
      9          0.896703        0.896703   1.000000   1.000000
     10          1.163836        1.163836   1.000000   1.000000
     11          2.608947        2.608948   1.000000   1.000000
     12          2.633267        2.633267   1.000000   1.000000
     13          3.245594        3.245594   1.000000   1.000000
     14          3.468233        3.468233   1.000000   1.000000
     15          3.582184        3.582184   1.000000   1.000000
     16          3.783663        3.783663   1.000000   1.000000
     17          3.899308        3.899308   1.000000   1.000000
     18          5.440749        5.440749   1.000000   1.000000
     19          5.644977        5.644977   1.000000   1.000000
     20          6.546364        6.546364   0.016195   0.016195
     21          7.391226        7.391226   0.000000   0.000000
     22          7.449911        7.449911   0.000000   0.000000
     23          7.745243        7.745243   0.000000   0.000000
     24          7.951360        7.951427   0.000000   0.000000
 
 -0.4473684E+00  0.0000000E+00  0.5000000E+00  0.2500000E-01
      1        -44.232183      -44.232183   1.000000   1.000000
      2        -44.231486      -44.231486   1.000000   1.000000
      3        -44.228155      -44.228155   1.000000   1.000000
      4        -39.850396      -39.850396   1.000000   1.000000
      5        -39.844990      -39.844990   1.000000   1.000000
      6        -39.843946      -39.843946   1.000000   1.000000
      7         -4.724602       -4.724602   1.000000   1.000000
      8         -4.701808       -4.701808   1.000000   1.000000
      9          0.941576        0.941576   1.000000   1.000000
     10          1.194457        1.194457   1.000000   1.000000
     11          2.627859        2.627859   1.000000   1.000000
     12          2.638525        2.638525   1.000000   1.000000
     13          3.247415        3.247415   1.000000   1.000000
     14          3.443813        3.443813   1.000000   1.000000
     15          3.531414        3.531414   1.000000   1.000000
     16          3.844676        3.844676   1.000000   1.000000
     17          3.934528        3.934528   1.000000   1.000000
     18          5.442311        5.442311   1.000000   1.000000
     19          5.583893        5.583893   1.000000   1.000000
     20          6.560767        6.560767   0.005434   0.005434
     21          7.398945        7.398945   0.000000   0.000000
     22          7.441642        7.441642   0.000000   0.000000
     23          7.745911        7.745911   0.000000   0.000000
     24          7.876921        7.876920   0.000000   0.000000
 
 -0.4210526E+00  0.0000000E+00  0.5000000E+00  0.2500000E-01
      1        -44.232158      -44.232158   1.000000   1.000000
      2        -44.231487      -44.231487   1.000000   1.000000
      3        -44.228168      -44.228168   1.000000   1.000000
      4        -39.850413      -39.850413   1.000000   1.000000
      5        -39.844950      -39.844950   1.000000   1.000000
      6        -39.843945      -39.843945   1.000000   1.000000
      7         -4.755384       -4.755384   1.000000   1.000000
      8         -4.734695       -4.734695   1.000000   1.000000
      9          1.014512        1.014512   1.000000   1.000000
     10          1.243588        1.243588   1.000000   1.000000
     11          2.646962        2.646962   1.000000   1.000000
     12          2.656409        2.656409   1.000000   1.000000
     13          3.251894        3.251894   1.000000   1.000000
     14          3.410667        3.410667   1.000000   1.000000
     15          3.484257        3.484257   1.000000   1.000000
     16          3.909730        3.909730   1.000000   1.000000
     17          3.985345        3.985345   1.000000   1.000000
     18          5.445518        5.445518   1.000000   1.000000
     19          5.494932        5.494932   1.000000   1.000000
     20          6.579084        6.579084   0.001088   0.001088
     21          7.411311        7.411311   0.000000   0.000000
     22          7.420629        7.420629   0.000000   0.000000
     23          7.747161        7.747161   0.000000   0.000000
     24          7.825292        7.825292   0.000000   0.000000
 
 -0.3947368E+00  0.0000000E+00  0.5000000E+00  0.2500000E-01
      1        -44.232108      -44.232108   1.000000   1.000000
      2        -44.231474      -44.231474   1.000000   1.000000
      3        -44.228163      -44.228163   1.000000   1.000000
      4        -39.850410      -39.850410   1.000000   1.000000
      5        -39.844878      -39.844878   1.000000   1.000000
      6        -39.843926      -39.843926   1.000000   1.000000
      7         -4.796653       -4.796653   1.000000   1.000000
      8         -4.778192       -4.778192   1.000000   1.000000
      9          1.112740        1.112740   1.000000   1.000000
     10          1.308678        1.308678   1.000000   1.000000
     11          2.658084        2.658084   1.000000   1.000000
     12          2.689243        2.689243   1.000000   1.000000
     13          3.261629        3.261629   1.000000   1.000000
     14          3.374358        3.374358   1.000000   1.000000
     15          3.451028        3.451028   1.000000   1.000000
     16          3.969868        3.969868   1.000000   1.000000
     17          4.045676        4.045676   1.000000   1.000000
     18          5.390964        5.390964   1.000000   1.000000
     19          5.451302        5.451302   1.000000   1.000000
     20          6.597879        6.597879   0.000161   0.000161
     21          7.385424        7.385424   0.000000   0.000000
     22          7.427458        7.427458   0.000000   0.000000
     23          7.749303        7.749303   0.000000   0.000000
     24          7.796188        7.796188   0.000000   0.000000
 
 -0.3684211E+00  0.0000000E+00  0.5000000E+00  0.2500000E-01
      1        -44.232054      -44.232054   1.000000   1.000000
      2        -44.231460      -44.231460   1.000000   1.000000
      3        -44.228172      -44.228172   1.000000   1.000000
      4        -39.850424      -39.850424   1.000000   1.000000
      5        -39.844797      -39.844797   1.000000   1.000000
      6        -39.843907      -39.843907   1.000000   1.000000
      7         -4.846905       -4.846905   1.000000   1.000000
      8         -4.830080       -4.830080   1.000000   1.000000
      9          1.232289        1.232289   1.000000   1.000000
     10          1.386901        1.386901   1.000000   1.000000
     11          2.671189        2.671189   1.000000   1.000000
     12          2.718279        2.718279   1.000000   1.000000
     13          3.278608        3.278608   1.000000   1.000000
     14          3.338621        3.338621   1.000000   1.000000
     15          3.441505        3.441505   1.000000   1.000000
     16          4.018851        4.018851   1.000000   1.000000
     17          4.111032        4.111032   1.000000   1.000000
     18          5.284015        5.284015   1.000000   1.000000
     19          5.460988        5.460988   1.000000   1.000000
     20          6.616377        6.616377   0.000019   0.000019
     21          7.341989        7.341989   0.000000   0.000000
     22          7.445963        7.445963   0.000000   0.000000
     23          7.752989        7.752989   0.000000   0.000000
     24          7.779923        7.779923   0.000000   0.000000
 
 -0.3421053E+00  0.0000000E+00  0.5000000E+00  0.2500000E-01
      1        -44.231990      -44.231990   1.000000   1.000000
      2        -44.231448      -44.231448   1.000000   1.000000
      3        -44.228187      -44.228187   1.000000   1.000000
      4        -39.850446      -39.850446   1.000000   1.000000
      5        -39.844704      -39.844704   1.000000   1.000000
      6        -39.843888      -39.843888   1.000000   1.000000
      7         -4.904401       -4.904401   1.000000   1.000000
      8         -4.887879       -4.887879   1.000000   1.000000
      9          1.367286        1.367286   1.000000   1.000000
     10          1.476393        1.476393   1.000000   1.000000
     11          2.685367        2.685367   1.000000   1.000000
     12          2.735644        2.735644   1.000000   1.000000
     13          3.297524        3.297524   1.000000   1.000000
     14          3.305913        3.305913   1.000000   1.000000
     15          3.471010        3.471010   1.000000   1.000000
     16          4.050771        4.050771   1.000000   1.000000
     17          4.177938        4.177938   1.000000   1.000000
     18          5.184809        5.184809   1.000000   1.000000
     19          5.476281        5.476281   1.000000   1.000000
     20          6.635781        6.635781   0.000002   0.000002
     21          7.298390        7.298390   0.000000   0.000000
     22          7.464623        7.464623   0.000000   0.000000
     23          7.759437        7.759437   0.000000   0.000000
     24          7.766595        7.766595   0.000000   0.000000
 
 -0.3157895E+00  0.0000000E+00  0.5000000E+00  0.2500000E-01
      1        -44.231937      -44.231937   1.000000   1.000000
      2        -44.231431      -44.231431   1.000000   1.000000
      3        -44.228204      -44.228204   1.000000   1.000000
      4        -39.850471      -39.850471   1.000000   1.000000
      5        -39.844619      -39.844619   1.000000   1.000000
      6        -39.843863      -39.843863   1.000000   1.000000
      7         -4.967134       -4.967134   1.000000   1.000000
      8         -4.949274       -4.949274   1.000000   1.000000
      9          1.506164        1.506164   1.000000   1.000000
     10          1.580194        1.580194   1.000000   1.000000
     11          2.699534        2.699534   1.000000   1.000000
     12          2.739304        2.739304   1.000000   1.000000
     13          3.277971        3.277971   1.000000   1.000000
     14          3.309579        3.309579   1.000000   1.000000
     15          3.550380        3.550380   1.000000   1.000000
     16          4.061657        4.061657   1.000000   1.000000
     17          4.243396        4.243396   1.000000   1.000000
     18          5.102183        5.102183   1.000000   1.000000
     19          5.499202        5.499202   1.000000   1.000000
     20          6.658254        6.658254   0.000000   0.000000
     21          7.260926        7.260927   0.000000   0.000000
     22          7.480298        7.480298   0.000000   0.000000
     23          7.750474        7.750474   0.000000   0.000000
     24          7.770590        7.770590   0.000000   0.000000
 
 -0.2894737E+00  0.0000000E+00  0.5000000E+00  0.2500000E-01
      1        -44.231866      -44.231866   1.000000   1.000000
      2        -44.231404      -44.231404   1.000000   1.000000
      3        -44.228210      -44.228210   1.000000   1.000000
      4        -39.850482      -39.850482   1.000000   1.000000
      5        -39.844513      -39.844513   1.000000   1.000000
      6        -39.843824      -39.843824   1.000000   1.000000
      7         -5.032854       -5.032854   1.000000   1.000000
      8         -5.012348       -5.012348   1.000000   1.000000
      9          1.627762        1.627762   1.000000   1.000000
     10          1.709972        1.709972   1.000000   1.000000
     11          2.712506        2.712506   1.000000   1.000000
     12          2.735247        2.735247   1.000000   1.000000
     13          3.256080        3.256080   1.000000   1.000000
     14          3.316392        3.316392   1.000000   1.000000
     15          3.665294        3.665294   1.000000   1.000000
     16          4.056882        4.056882   1.000000   1.000000
     17          4.304646        4.304646   1.000000   1.000000
     18          5.041190        5.041190   1.000000   1.000000
     19          5.531921        5.531921   1.000000   1.000000
     20          6.686043        6.686043   0.000000   0.000000
     21          7.234142        7.234142   0.000000   0.000000
     22          7.489175        7.489175   0.000000   0.000000
     23          7.729345        7.729345   0.000000   0.000000
     24          7.788849        7.788849   0.000000   0.000000
 
 -0.2631579E+00  0.0000000E+00  0.5000000E+00  0.2500000E-01
      1        -44.231795      -44.231795   1.000000   1.000000
      2        -44.231398      -44.231398   1.000000   1.000000
      3        -44.228228      -44.228228   1.000000   1.000000
      4        -39.850510      -39.850510   1.000000   1.000000
      5        -39.844408      -39.844408   1.000000   1.000000
      6        -39.843813      -39.843813   1.000000   1.000000
      7         -5.099331       -5.099331   1.000000   1.000000
      8         -5.075457       -5.075457   1.000000   1.000000
      9          1.732130        1.732130   1.000000   1.000000
     10          1.854412        1.854412   1.000000   1.000000
     11          2.723155        2.723155   1.000000   1.000000
     12          2.734809        2.734809   1.000000   1.000000
     13          3.241119        3.241119   1.000000   1.000000
     14          3.322036        3.322036   1.000000   1.000000
     15          3.764972        3.764972   1.000000   1.000000
     16          4.076559        4.076559   1.000000   1.000000
     17          4.359260        4.359260   1.000000   1.000000
     18          5.001186        5.001186   1.000000   1.000000
     19          5.576466        5.576466   1.000000   1.000000
     20          6.720634        6.720634   0.000000   0.000000
     21          7.221956        7.221956   0.000000   0.000000
     22          7.487759        7.487759   0.000000   0.000000
     23          7.702691        7.702691   0.000000   0.000000
     24          7.816082        7.816082   0.000000   0.000000
 
 -0.2368421E+00  0.0000000E+00  0.5000000E+00  0.2500000E-01
      1        -44.231713      -44.231713   1.000000   1.000000
      2        -44.231381      -44.231381   1.000000   1.000000
      3        -44.228236      -44.228236   1.000000   1.000000
      4        -39.850525      -39.850525   1.000000   1.000000
      5        -39.844286      -39.844286   1.000000   1.000000
      6        -39.843787      -39.843787   1.000000   1.000000
      7         -5.164596       -5.164596   1.000000   1.000000
      8         -5.137107       -5.137107   1.000000   1.000000
      9          1.831223        1.831223   1.000000   1.000000
     10          1.987324        1.987324   1.000000   1.000000
     11          2.730636        2.730636   1.000000   1.000000
     12          2.752410        2.752411   1.000000   1.000000
     13          3.233465        3.233465   1.000000   1.000000
     14          3.328159        3.328159   1.000000   1.000000
     15          3.767642        3.767642   1.000000   1.000000
     16          4.197846        4.197846   1.000000   1.000000
     17          4.405393        4.405393   1.000000   1.000000
     18          4.977142        4.977142   1.000000   1.000000
     19          5.634302        5.634302   1.000000   1.000000
     20          6.761755        6.761755   0.000000   0.000000
     21          7.228721        7.228721   0.000000   0.000000
     22          7.474008        7.474008   0.000000   0.000000
     23          7.670443        7.670443   0.000000   0.000000
     24          7.852522        7.852522   0.000000   0.000000
 
 -0.2105263E+00  0.0000000E+00  0.5000000E+00  0.2500000E-01
      1        -44.231636      -44.231636   1.000000   1.000000
      2        -44.231352      -44.231352   1.000000   1.000000
      3        -44.228246      -44.228246   1.000000   1.000000
      4        -39.850542      -39.850542   1.000000   1.000000
      5        -39.844171      -39.844171   1.000000   1.000000
      6        -39.843748      -39.843748   1.000000   1.000000
      7         -5.226915       -5.226915   1.000000   1.000000
      8         -5.195869       -5.195869   1.000000   1.000000
      9          1.928723        1.928723   1.000000   1.000000
     10          2.089256        2.089256   1.000000   1.000000
     11          2.734593        2.734593   1.000000   1.000000
     12          2.802812        2.802812   1.000000   1.000000
     13          3.232837        3.232837   1.000000   1.000000
     14          3.335072        3.335072   1.000000   1.000000
     15          3.696214        3.696214   1.000000   1.000000
     16          4.394029        4.394029   1.000000   1.000000
     17          4.442086        4.442086   1.000000   1.000000
     18          4.965652        4.965652   1.000000   1.000000
     19          5.705939        5.705939   1.000000   1.000000
     20          6.806537        6.806537   0.000000   0.000000
     21          7.259718        7.259718   0.000000   0.000000
     22          7.447458        7.447458   0.000000   0.000000
     23          7.632386        7.632386   0.000000   0.000000
     24          7.896679        7.896679   0.000000   0.000000
 
 -0.1842105E+00  0.0000000E+00  0.5000000E+00  0.2500000E-01
      1        -44.231559      -44.231559   1.000000   1.000000
      2        -44.231329      -44.231329   1.000000   1.000000
      3        -44.228259      -44.228259   1.000000   1.000000
      4        -39.850561      -39.850561   1.000000   1.000000
      5        -39.844055      -39.844055   1.000000   1.000000
      6        -39.843715      -39.843715   1.000000   1.000000
      7         -5.284860       -5.284860   1.000000   1.000000
      8         -5.250495       -5.250495   1.000000   1.000000
      9          2.025772        2.025772   1.000000   1.000000
     10          2.150570        2.150570   1.000000   1.000000
     11          2.735231        2.735231   1.000000   1.000000
     12          2.891795        2.891795   1.000000   1.000000
     13          3.238254        3.238254   1.000000   1.000000
     14          3.341914        3.341914   1.000000   1.000000
     15          3.599793        3.599793   1.000000   1.000000
     16          4.469382        4.469382   1.000000   1.000000
     17          4.598607        4.598607   1.000000   1.000000
     18          4.980079        4.980079   1.000000   1.000000
     19          5.790672        5.790672   1.000000   1.000000
     20          6.850026        6.850026   0.000000   0.000000
     21          7.319817        7.319817   0.000000   0.000000
     22          7.408519        7.408519   0.000000   0.000000
     23          7.588266        7.588266   0.000000   0.000000
     24          7.946099        7.946099   0.000000   0.000000
 
 -0.1578947E+00  0.0000000E+00  0.5000000E+00  0.2500000E-01
      1        -44.231477      -44.231477   1.000000   1.000000
      2        -44.231304      -44.231304   1.000000   1.000000
      3        -44.228260      -44.228260   1.000000   1.000000
      4        -39.850567      -39.850567   1.000000   1.000000
      5        -39.843935      -39.843935   1.000000   1.000000
      6        -39.843679      -39.843679   1.000000   1.000000
      7         -5.337236       -5.337236   1.000000   1.000000
      8         -5.299898       -5.299898   1.000000   1.000000
      9          2.122997        2.122997   1.000000   1.000000
     10          2.177162        2.177162   1.000000   1.000000
     11          2.733239        2.733239   1.000000   1.000000
     12          3.007418        3.007418   1.000000   1.000000
     13          3.248178        3.248178   1.000000   1.000000
     14          3.341702        3.341702   1.000000   1.000000
     15          3.505974        3.505974   1.000000   1.000000
     16          4.488215        4.488215   1.000000   1.000000
     17          4.723063        4.723063   1.000000   1.000000
     18          5.086748        5.086748   1.000000   1.000000
     19          5.886589        5.886589   1.000000   1.000000
     20          6.887824        6.887824   0.000000   0.000000
     21          7.357990        7.357990   0.000000   0.000000
     22          7.406320        7.406320   0.000000   0.000000
     23          7.541860        7.541860   0.000000   0.000000
     24          7.998003        7.998003   0.000000   0.000000
 
 -0.1315789E+00  0.0000000E+00  0.5000000E+00  0.2500000E-01
      1        -44.231409      -44.231409   1.000000   1.000000
      2        -44.231282      -44.231282   1.000000   1.000000
      3        -44.228270      -44.228270   1.000000   1.000000
      4        -39.850583      -39.850583   1.000000   1.000000
      5        -39.843836      -39.843836   1.000000   1.000000
      6        -39.843648      -39.843648   1.000000   1.000000
      7         -5.383070       -5.383070   1.000000   1.000000
      8         -5.343165       -5.343165   1.000000   1.000000
      9          2.181652        2.181652   1.000000   1.000000
     10          2.221787        2.221787   1.000000   1.000000
     11          2.729543        2.729543   1.000000   1.000000
     12          3.124193        3.124193   1.000000   1.000000
     13          3.260756        3.260756   1.000000   1.000000
     14          3.299159        3.299159   1.000000   1.000000
     15          3.465984        3.465984   1.000000   1.000000
     16          4.500090        4.500090   1.000000   1.000000
     17          4.732070        4.732070   1.000000   1.000000
     18          5.309736        5.309736   1.000000   1.000000
     19          5.990664        5.990664   1.000000   1.000000
     20          6.918368        6.918368   0.000000   0.000000
     21          7.297069        7.297069   0.000000   0.000000
     22          7.438478        7.438478   0.000000   0.000000
     23          7.568897        7.568897   0.000000   0.000000
     24          8.049488        8.049488   0.000000   0.000000
 
 -0.1052632E+00  0.0000000E+00  0.5000000E+00  0.2500000E-01
      1        -44.231337      -44.231337   1.000000   1.000000
      2        -44.231266      -44.231266   1.000000   1.000000
      3        -44.228278      -44.228278   1.000000   1.000000
      4        -39.850596      -39.850596   1.000000   1.000000
      5        -39.843732      -39.843732   1.000000   1.000000
      6        -39.843625      -39.843625   1.000000   1.000000
      7         -5.421573       -5.421573   1.000000   1.000000
      8         -5.379543       -5.379543   1.000000   1.000000
      9          2.176655        2.176655   1.000000   1.000000
     10          2.321176        2.321176   1.000000   1.000000
     11          2.725109        2.725109   1.000000   1.000000
     12          3.188018        3.188018   1.000000   1.000000
     13          3.228147        3.228147   1.000000   1.000000
     14          3.274097        3.274097   1.000000   1.000000
     15          3.508615        3.508615   1.000000   1.000000
     16          4.506764        4.506764   1.000000   1.000000
     17          4.692991        4.692991   1.000000   1.000000
     18          5.574311        5.574311   1.000000   1.000000
     19          6.098741        6.098741   1.000000   1.000000
     20          6.942199        6.942199   0.000000   0.000000
     21          7.227814        7.227814   0.000000   0.000000
     22          7.366839        7.366839   0.000000   0.000000
     23          7.708279        7.708279   0.000000   0.000000
     24          8.097567        8.097567   0.000000   0.000000
 
 -0.7894737E-01  0.0000000E+00  0.5000000E+00  0.2500000E-01
      1        -44.231291      -44.231291   1.000000   1.000000
      2        -44.231260      -44.231260   1.000000   1.000000
      3        -44.228286      -44.228286   1.000000   1.000000
      4        -39.850608      -39.850608   1.000000   1.000000
      5        -39.843664      -39.843664   1.000000   1.000000
      6        -39.843616      -39.843616   1.000000   1.000000
      7         -5.452137       -5.452137   1.000000   1.000000
      8         -5.408443       -5.408443   1.000000   1.000000
      9          2.168039        2.168039   1.000000   1.000000
     10          2.422531        2.422531   1.000000   1.000000
     11          2.720784        2.720784   1.000000   1.000000
     12          3.085245        3.085245   1.000000   1.000000
     13          3.268471        3.268471   1.000000   1.000000
     14          3.286464        3.286464   1.000000   1.000000
     15          3.597548        3.597548   1.000000   1.000000
     16          4.509938        4.509938   1.000000   1.000000
     17          4.636896        4.636896   1.000000   1.000000
     18          5.843486        5.843486   1.000000   1.000000
     19          6.205052        6.205052   1.000000   1.000000
     20          6.960037        6.960037   0.000000   0.000000
     21          7.153971        7.153971   0.000000   0.000000
     22          7.267341        7.267341   0.000000   0.000000
     23          7.869730        7.869730   0.000000   0.000000
     24          8.139217        8.139217   0.000000   0.000000
 
 -0.5263158E-01  0.0000000E+00  0.5000000E+00  0.2500000E-01
      1        -44.231270      -44.231270   1.000000   1.000000
      2        -44.231262      -44.231262   1.000000   1.000000
      3        -44.228292      -44.228292   1.000000   1.000000
      4        -39.850619      -39.850619   1.000000   1.000000
      5        -39.843632      -39.843632   1.000000   1.000000
      6        -39.843617      -39.843617   1.000000   1.000000
      7         -5.474299       -5.474299   1.000000   1.000000
      8         -5.429411       -5.429411   1.000000   1.000000
      9          2.159849        2.159849   1.000000   1.000000
     10          2.525875        2.525875   1.000000   1.000000
     11          2.717235        2.717235   1.000000   1.000000
     12          2.971402        2.971402   1.000000   1.000000
     13          3.291502        3.291502   1.000000   1.000000
     14          3.296405        3.296404   1.000000   1.000000
     15          3.695196        3.695196   1.000000   1.000000
     16          4.511080        4.511080   1.000000   1.000000
     17          4.577780        4.577780   1.000000   1.000000
     18          6.096954        6.096954   1.000000   1.000000
     19          6.300877        6.300877   0.999999   0.999999
     20          6.971465        6.971465   0.000000   0.000000
     21          7.082575        7.082575   0.000000   0.000000
     22          7.149417        7.149417   0.000000   0.000000
     23          8.027382        8.027382   0.000000   0.000000
     24          8.171544        8.171544   0.000000   0.000000
 
 -0.2631579E-01  0.0000000E+00  0.5000000E+00  0.2500000E-01
      1        -44.231268      -44.231268   1.000000   1.000000
      2        -44.231255      -44.231255   1.000000   1.000000
      3        -44.228303      -44.228303   1.000000   1.000000
      4        -39.850633      -39.850633   1.000000   1.000000
      5        -39.843625      -39.843625   1.000000   1.000000
      6        -39.843606      -39.843606   1.000000   1.000000
      7         -5.487721       -5.487721   1.000000   1.000000
      8         -5.442115       -5.442115   1.000000   1.000000
      9          2.154229        2.154229   1.000000   1.000000
     10          2.630533        2.630533   1.000000   1.000000
     11          2.714929        2.714929   1.000000   1.000000
     12          2.859384        2.859384   1.000000   1.000000
     13          3.301981        3.301981   1.000000   1.000000
     14          3.302825        3.302825   1.000000   1.000000
     15          3.770409        3.770409   1.000000   1.000000
     16          4.511306        4.511306   1.000000   1.000000
     17          4.530193        4.530193   1.000000   1.000000
     18          6.305813        6.305813   0.999998   0.999998
     19          6.372128        6.372128   0.997353   0.997353
     20          6.969183        6.969183   0.000000   0.000000
     21          7.026481        7.026481   0.000000   0.000000
     22          7.036829        7.036829   0.000000   0.000000
     23          8.150594        8.150594   0.000000   0.000000
     24          8.192078        8.192078   0.000000   0.000000
 
 -0.2775558E-16  0.0000000E+00  0.5000000E+00  0.2500000E-01
      1        -44.231254      -44.231254   1.000000   1.000000
      2        -44.231251      -44.231251   1.000000   1.000000
      3        -44.228298      -44.228298   1.000000   1.000000
      4        -39.850627      -39.850627   1.000000   1.000000
      5        -39.843605      -39.843605   1.000000   1.000000
      6        -39.843599      -39.843599   1.000000   1.000000
      7         -5.492213       -5.492213   1.000000   1.000000
      8         -5.446367       -5.446367   1.000000   1.000000
      9          2.152248        2.152248   1.000000   1.000000
     10          2.714131        2.714131   1.000000   1.000000
     11          2.714135        2.714135   1.000000   1.000000
     12          2.773201        2.773201   1.000000   1.000000
     13          3.305042        3.305042   1.000000   1.000000
     14          3.305043        3.305043   1.000000   1.000000
     15          3.799103        3.799103   1.000000   1.000000
     16          4.511304        4.511304   1.000000   1.000000
     17          4.511307        4.511307   1.000000   1.000000
     18          6.399534        6.399534   0.977965   0.977965
     19          6.399535        6.399535   0.977964   0.977964
     20          6.940449        6.940449   0.000000   0.000000
     21          7.004211        7.004211   0.000000   0.000000
     22          7.004212        7.004212   0.000000   0.000000
     23          8.199124        8.199124   0.000000   0.000000
     24          8.199126        8.199126   0.000000   0.000000
 
  0.0000000E+00  0.0000000E+00  0.5000000E+00  0.2500000E-01
      1        -44.231254      -44.231254   1.000000   1.000000
      2        -44.231251      -44.231251   1.000000   1.000000
      3        -44.228298      -44.228298   1.000000   1.000000
      4        -39.850627      -39.850627   1.000000   1.000000
      5        -39.843605      -39.843605   1.000000   1.000000
      6        -39.843599      -39.843599   1.000000   1.000000
      7         -5.492213       -5.492213   1.000000   1.000000
      8         -5.446367       -5.446367   1.000000   1.000000
      9          2.152248        2.152248   1.000000   1.000000
     10          2.714131        2.714131   1.000000   1.000000
     11          2.714135        2.714135   1.000000   1.000000
     12          2.773201        2.773201   1.000000   1.000000
     13          3.305042        3.305042   1.000000   1.000000
     14          3.305043        3.305043   1.000000   1.000000
     15          3.799103        3.799103   1.000000   1.000000
     16          4.511304        4.511304   1.000000   1.000000
     17          4.511307        4.511307   1.000000   1.000000
     18          6.399534        6.399534   0.977965   0.977965
     19          6.399535        6.399535   0.977964   0.977964
     20          6.940449        6.940449   0.000000   0.000000
     21          7.004211        7.004211   0.000000   0.000000
     22          7.004212        7.004212   0.000000   0.000000
     23          8.199124        8.199124   0.000000   0.000000
     24          8.199126        8.199126   0.000000   0.000000
 
  0.2631579E-01  0.0000000E+00  0.5000000E+00  0.2500000E-01
      1        -44.231268      -44.231268   1.000000   1.000000
      2        -44.231255      -44.231255   1.000000   1.000000
      3        -44.228303      -44.228303   1.000000   1.000000
      4        -39.850633      -39.850633   1.000000   1.000000
      5        -39.843625      -39.843625   1.000000   1.000000
      6        -39.843606      -39.843606   1.000000   1.000000
      7         -5.487721       -5.487721   1.000000   1.000000
      8         -5.442115       -5.442115   1.000000   1.000000
      9          2.154229        2.154229   1.000000   1.000000
     10          2.630533        2.630533   1.000000   1.000000
     11          2.714929        2.714929   1.000000   1.000000
     12          2.859384        2.859384   1.000000   1.000000
     13          3.301981        3.301981   1.000000   1.000000
     14          3.302825        3.302825   1.000000   1.000000
     15          3.770409        3.770409   1.000000   1.000000
     16          4.511306        4.511306   1.000000   1.000000
     17          4.530193        4.530193   1.000000   1.000000
     18          6.305813        6.305813   0.999998   0.999998
     19          6.372128        6.372128   0.997353   0.997353
     20          6.969183        6.969183   0.000000   0.000000
     21          7.026481        7.026481   0.000000   0.000000
     22          7.036829        7.036829   0.000000   0.000000
     23          8.150594        8.150594   0.000000   0.000000
     24          8.192078        8.192078   0.000000   0.000000
 
  0.5263158E-01  0.0000000E+00  0.5000000E+00  0.2500000E-01
      1        -44.231270      -44.231270   1.000000   1.000000
      2        -44.231262      -44.231262   1.000000   1.000000
      3        -44.228292      -44.228292   1.000000   1.000000
      4        -39.850619      -39.850619   1.000000   1.000000
      5        -39.843632      -39.843632   1.000000   1.000000
      6        -39.843617      -39.843617   1.000000   1.000000
      7         -5.474299       -5.474299   1.000000   1.000000
      8         -5.429411       -5.429411   1.000000   1.000000
      9          2.159849        2.159849   1.000000   1.000000
     10          2.525875        2.525875   1.000000   1.000000
     11          2.717235        2.717235   1.000000   1.000000
     12          2.971402        2.971402   1.000000   1.000000
     13          3.291502        3.291502   1.000000   1.000000
     14          3.296405        3.296404   1.000000   1.000000
     15          3.695196        3.695196   1.000000   1.000000
     16          4.511080        4.511080   1.000000   1.000000
     17          4.577780        4.577780   1.000000   1.000000
     18          6.096954        6.096954   1.000000   1.000000
     19          6.300877        6.300877   0.999999   0.999999
     20          6.971465        6.971465   0.000000   0.000000
     21          7.082575        7.082575   0.000000   0.000000
     22          7.149417        7.149417   0.000000   0.000000
     23          8.027382        8.027382   0.000000   0.000000
     24          8.171544        8.171544   0.000000   0.000000
 
  0.7894737E-01  0.0000000E+00  0.5000000E+00  0.2500000E-01
      1        -44.231291      -44.231291   1.000000   1.000000
      2        -44.231260      -44.231260   1.000000   1.000000
      3        -44.228286      -44.228286   1.000000   1.000000
      4        -39.850608      -39.850608   1.000000   1.000000
      5        -39.843664      -39.843664   1.000000   1.000000
      6        -39.843616      -39.843616   1.000000   1.000000
      7         -5.452137       -5.452137   1.000000   1.000000
      8         -5.408443       -5.408443   1.000000   1.000000
      9          2.168039        2.168039   1.000000   1.000000
     10          2.422531        2.422531   1.000000   1.000000
     11          2.720784        2.720784   1.000000   1.000000
     12          3.085245        3.085245   1.000000   1.000000
     13          3.268471        3.268471   1.000000   1.000000
     14          3.286464        3.286464   1.000000   1.000000
     15          3.597548        3.597548   1.000000   1.000000
     16          4.509938        4.509938   1.000000   1.000000
     17          4.636896        4.636896   1.000000   1.000000
     18          5.843486        5.843486   1.000000   1.000000
     19          6.205052        6.205052   1.000000   1.000000
     20          6.960037        6.960037   0.000000   0.000000
     21          7.153971        7.153971   0.000000   0.000000
     22          7.267341        7.267341   0.000000   0.000000
     23          7.869730        7.869730   0.000000   0.000000
     24          8.139217        8.139217   0.000000   0.000000
 
  0.1052632E+00  0.0000000E+00  0.5000000E+00  0.2500000E-01
      1        -44.231337      -44.231337   1.000000   1.000000
      2        -44.231266      -44.231266   1.000000   1.000000
      3        -44.228278      -44.228278   1.000000   1.000000
      4        -39.850596      -39.850596   1.000000   1.000000
      5        -39.843732      -39.843732   1.000000   1.000000
      6        -39.843625      -39.843625   1.000000   1.000000
      7         -5.421573       -5.421573   1.000000   1.000000
      8         -5.379543       -5.379543   1.000000   1.000000
      9          2.176655        2.176655   1.000000   1.000000
     10          2.321176        2.321176   1.000000   1.000000
     11          2.725109        2.725109   1.000000   1.000000
     12          3.188018        3.188018   1.000000   1.000000
     13          3.228147        3.228147   1.000000   1.000000
     14          3.274097        3.274097   1.000000   1.000000
     15          3.508615        3.508615   1.000000   1.000000
     16          4.506764        4.506764   1.000000   1.000000
     17          4.692991        4.692991   1.000000   1.000000
     18          5.574311        5.574311   1.000000   1.000000
     19          6.098741        6.098741   1.000000   1.000000
     20          6.942199        6.942199   0.000000   0.000000
     21          7.227814        7.227814   0.000000   0.000000
     22          7.366839        7.366839   0.000000   0.000000
     23          7.708279        7.708279   0.000000   0.000000
     24          8.097567        8.097567   0.000000   0.000000
 
  0.1315789E+00  0.0000000E+00  0.5000000E+00  0.2500000E-01
      1        -44.231409      -44.231409   1.000000   1.000000
      2        -44.231282      -44.231282   1.000000   1.000000
      3        -44.228270      -44.228270   1.000000   1.000000
      4        -39.850583      -39.850583   1.000000   1.000000
      5        -39.843836      -39.843836   1.000000   1.000000
      6        -39.843648      -39.843648   1.000000   1.000000
      7         -5.383070       -5.383070   1.000000   1.000000
      8         -5.343165       -5.343165   1.000000   1.000000
      9          2.181652        2.181652   1.000000   1.000000
     10          2.221787        2.221787   1.000000   1.000000
     11          2.729543        2.729543   1.000000   1.000000
     12          3.124193        3.124193   1.000000   1.000000
     13          3.260756        3.260756   1.000000   1.000000
     14          3.299159        3.299159   1.000000   1.000000
     15          3.465984        3.465984   1.000000   1.000000
     16          4.500090        4.500090   1.000000   1.000000
     17          4.732070        4.732070   1.000000   1.000000
     18          5.309736        5.309736   1.000000   1.000000
     19          5.990664        5.990664   1.000000   1.000000
     20          6.918368        6.918368   0.000000   0.000000
     21          7.297069        7.297069   0.000000   0.000000
     22          7.438478        7.438478   0.000000   0.000000
     23          7.568897        7.568897   0.000000   0.000000
     24          8.049488        8.049488   0.000000   0.000000
 
  0.1578947E+00  0.0000000E+00  0.5000000E+00  0.2500000E-01
      1        -44.231477      -44.231477   1.000000   1.000000
      2        -44.231304      -44.231304   1.000000   1.000000
      3        -44.228260      -44.228260   1.000000   1.000000
      4        -39.850567      -39.850567   1.000000   1.000000
      5        -39.843935      -39.843935   1.000000   1.000000
      6        -39.843679      -39.843679   1.000000   1.000000
      7         -5.337236       -5.337236   1.000000   1.000000
      8         -5.299898       -5.299898   1.000000   1.000000
      9          2.122997        2.122997   1.000000   1.000000
     10          2.177162        2.177162   1.000000   1.000000
     11          2.733239        2.733239   1.000000   1.000000
     12          3.007418        3.007418   1.000000   1.000000
     13          3.248178        3.248178   1.000000   1.000000
     14          3.341702        3.341702   1.000000   1.000000
     15          3.505974        3.505974   1.000000   1.000000
     16          4.488215        4.488215   1.000000   1.000000
     17          4.723063        4.723063   1.000000   1.000000
     18          5.086748        5.086748   1.000000   1.000000
     19          5.886589        5.886589   1.000000   1.000000
     20          6.887824        6.887824   0.000000   0.000000
     21          7.357990        7.357990   0.000000   0.000000
     22          7.406320        7.406320   0.000000   0.000000
     23          7.541860        7.541860   0.000000   0.000000
     24          7.998003        7.998003   0.000000   0.000000
 
  0.1842105E+00  0.0000000E+00  0.5000000E+00  0.2500000E-01
      1        -44.231559      -44.231559   1.000000   1.000000
      2        -44.231329      -44.231329   1.000000   1.000000
      3        -44.228259      -44.228259   1.000000   1.000000
      4        -39.850561      -39.850561   1.000000   1.000000
      5        -39.844055      -39.844055   1.000000   1.000000
      6        -39.843715      -39.843715   1.000000   1.000000
      7         -5.284860       -5.284860   1.000000   1.000000
      8         -5.250495       -5.250495   1.000000   1.000000
      9          2.025772        2.025772   1.000000   1.000000
     10          2.150570        2.150570   1.000000   1.000000
     11          2.735231        2.735231   1.000000   1.000000
     12          2.891795        2.891795   1.000000   1.000000
     13          3.238254        3.238254   1.000000   1.000000
     14          3.341914        3.341914   1.000000   1.000000
     15          3.599793        3.599793   1.000000   1.000000
     16          4.469382        4.469382   1.000000   1.000000
     17          4.598607        4.598607   1.000000   1.000000
     18          4.980079        4.980079   1.000000   1.000000
     19          5.790672        5.790672   1.000000   1.000000
     20          6.850026        6.850026   0.000000   0.000000
     21          7.319817        7.319817   0.000000   0.000000
     22          7.408519        7.408519   0.000000   0.000000
     23          7.588266        7.588266   0.000000   0.000000
     24          7.946099        7.946099   0.000000   0.000000
 
  0.2105263E+00  0.0000000E+00  0.5000000E+00  0.2500000E-01
      1        -44.231636      -44.231636   1.000000   1.000000
      2        -44.231352      -44.231352   1.000000   1.000000
      3        -44.228246      -44.228246   1.000000   1.000000
      4        -39.850542      -39.850542   1.000000   1.000000
      5        -39.844171      -39.844171   1.000000   1.000000
      6        -39.843748      -39.843748   1.000000   1.000000
      7         -5.226915       -5.226915   1.000000   1.000000
      8         -5.195869       -5.195869   1.000000   1.000000
      9          1.928723        1.928723   1.000000   1.000000
     10          2.089256        2.089256   1.000000   1.000000
     11          2.734593        2.734593   1.000000   1.000000
     12          2.802812        2.802812   1.000000   1.000000
     13          3.232837        3.232837   1.000000   1.000000
     14          3.335072        3.335072   1.000000   1.000000
     15          3.696214        3.696214   1.000000   1.000000
     16          4.394029        4.394029   1.000000   1.000000
     17          4.442086        4.442086   1.000000   1.000000
     18          4.965652        4.965652   1.000000   1.000000
     19          5.705939        5.705939   1.000000   1.000000
     20          6.806537        6.806537   0.000000   0.000000
     21          7.259718        7.259718   0.000000   0.000000
     22          7.447458        7.447458   0.000000   0.000000
     23          7.632386        7.632386   0.000000   0.000000
     24          7.896679        7.896679   0.000000   0.000000
 
  0.2368421E+00  0.0000000E+00  0.5000000E+00  0.2500000E-01
      1        -44.231713      -44.231713   1.000000   1.000000
      2        -44.231381      -44.231381   1.000000   1.000000
      3        -44.228236      -44.228236   1.000000   1.000000
      4        -39.850525      -39.850525   1.000000   1.000000
      5        -39.844286      -39.844286   1.000000   1.000000
      6        -39.843787      -39.843787   1.000000   1.000000
      7         -5.164596       -5.164596   1.000000   1.000000
      8         -5.137107       -5.137107   1.000000   1.000000
      9          1.831223        1.831223   1.000000   1.000000
     10          1.987324        1.987324   1.000000   1.000000
     11          2.730636        2.730636   1.000000   1.000000
     12          2.752410        2.752411   1.000000   1.000000
     13          3.233465        3.233465   1.000000   1.000000
     14          3.328159        3.328159   1.000000   1.000000
     15          3.767642        3.767642   1.000000   1.000000
     16          4.197846        4.197846   1.000000   1.000000
     17          4.405393        4.405393   1.000000   1.000000
     18          4.977142        4.977142   1.000000   1.000000
     19          5.634302        5.634302   1.000000   1.000000
     20          6.761755        6.761755   0.000000   0.000000
     21          7.228721        7.228721   0.000000   0.000000
     22          7.474008        7.474008   0.000000   0.000000
     23          7.670443        7.670443   0.000000   0.000000
     24          7.852522        7.852522   0.000000   0.000000
 
  0.2631579E+00  0.0000000E+00  0.5000000E+00  0.2500000E-01
      1        -44.231795      -44.231795   1.000000   1.000000
      2        -44.231398      -44.231398   1.000000   1.000000
      3        -44.228228      -44.228228   1.000000   1.000000
      4        -39.850510      -39.850510   1.000000   1.000000
      5        -39.844408      -39.844408   1.000000   1.000000
      6        -39.843813      -39.843813   1.000000   1.000000
      7         -5.099331       -5.099331   1.000000   1.000000
      8         -5.075457       -5.075457   1.000000   1.000000
      9          1.732130        1.732130   1.000000   1.000000
     10          1.854412        1.854412   1.000000   1.000000
     11          2.723155        2.723155   1.000000   1.000000
     12          2.734809        2.734809   1.000000   1.000000
     13          3.241119        3.241119   1.000000   1.000000
     14          3.322036        3.322036   1.000000   1.000000
     15          3.764972        3.764972   1.000000   1.000000
     16          4.076559        4.076559   1.000000   1.000000
     17          4.359260        4.359260   1.000000   1.000000
     18          5.001186        5.001186   1.000000   1.000000
     19          5.576466        5.576466   1.000000   1.000000
     20          6.720634        6.720634   0.000000   0.000000
     21          7.221956        7.221956   0.000000   0.000000
     22          7.487759        7.487759   0.000000   0.000000
     23          7.702691        7.702691   0.000000   0.000000
     24          7.816082        7.816082   0.000000   0.000000
 
  0.2894737E+00  0.0000000E+00  0.5000000E+00  0.2500000E-01
      1        -44.231866      -44.231866   1.000000   1.000000
      2        -44.231404      -44.231404   1.000000   1.000000
      3        -44.228210      -44.228210   1.000000   1.000000
      4        -39.850482      -39.850482   1.000000   1.000000
      5        -39.844513      -39.844513   1.000000   1.000000
      6        -39.843824      -39.843824   1.000000   1.000000
      7         -5.032854       -5.032854   1.000000   1.000000
      8         -5.012348       -5.012348   1.000000   1.000000
      9          1.627762        1.627762   1.000000   1.000000
     10          1.709972        1.709972   1.000000   1.000000
     11          2.712506        2.712506   1.000000   1.000000
     12          2.735247        2.735247   1.000000   1.000000
     13          3.256080        3.256080   1.000000   1.000000
     14          3.316392        3.316392   1.000000   1.000000
     15          3.665294        3.665294   1.000000   1.000000
     16          4.056882        4.056882   1.000000   1.000000
     17          4.304646        4.304646   1.000000   1.000000
     18          5.041190        5.041190   1.000000   1.000000
     19          5.531921        5.531921   1.000000   1.000000
     20          6.686043        6.686043   0.000000   0.000000
     21          7.234142        7.234142   0.000000   0.000000
     22          7.489175        7.489175   0.000000   0.000000
     23          7.729345        7.729345   0.000000   0.000000
     24          7.788849        7.788849   0.000000   0.000000
 
  0.3157895E+00  0.0000000E+00  0.5000000E+00  0.2500000E-01
      1        -44.231937      -44.231937   1.000000   1.000000
      2        -44.231431      -44.231431   1.000000   1.000000
      3        -44.228204      -44.228204   1.000000   1.000000
      4        -39.850471      -39.850471   1.000000   1.000000
      5        -39.844619      -39.844619   1.000000   1.000000
      6        -39.843863      -39.843863   1.000000   1.000000
      7         -4.967134       -4.967134   1.000000   1.000000
      8         -4.949274       -4.949274   1.000000   1.000000
      9          1.506164        1.506164   1.000000   1.000000
     10          1.580194        1.580194   1.000000   1.000000
     11          2.699534        2.699534   1.000000   1.000000
     12          2.739304        2.739304   1.000000   1.000000
     13          3.277971        3.277971   1.000000   1.000000
     14          3.309579        3.309579   1.000000   1.000000
     15          3.550380        3.550380   1.000000   1.000000
     16          4.061657        4.061657   1.000000   1.000000
     17          4.243396        4.243396   1.000000   1.000000
     18          5.102183        5.102183   1.000000   1.000000
     19          5.499202        5.499202   1.000000   1.000000
     20          6.658254        6.658254   0.000000   0.000000
     21          7.260926        7.260927   0.000000   0.000000
     22          7.480298        7.480298   0.000000   0.000000
     23          7.750474        7.750474   0.000000   0.000000
     24          7.770590        7.770590   0.000000   0.000000
 
  0.3421053E+00  0.0000000E+00  0.5000000E+00  0.2500000E-01
      1        -44.231990      -44.231990   1.000000   1.000000
      2        -44.231448      -44.231448   1.000000   1.000000
      3        -44.228187      -44.228187   1.000000   1.000000
      4        -39.850446      -39.850446   1.000000   1.000000
      5        -39.844704      -39.844704   1.000000   1.000000
      6        -39.843888      -39.843888   1.000000   1.000000
      7         -4.904401       -4.904401   1.000000   1.000000
      8         -4.887879       -4.887879   1.000000   1.000000
      9          1.367286        1.367286   1.000000   1.000000
     10          1.476393        1.476393   1.000000   1.000000
     11          2.685367        2.685367   1.000000   1.000000
     12          2.735644        2.735644   1.000000   1.000000
     13          3.297524        3.297524   1.000000   1.000000
     14          3.305913        3.305913   1.000000   1.000000
     15          3.471010        3.471010   1.000000   1.000000
     16          4.050771        4.050771   1.000000   1.000000
     17          4.177938        4.177938   1.000000   1.000000
     18          5.184809        5.184809   1.000000   1.000000
     19          5.476281        5.476281   1.000000   1.000000
     20          6.635781        6.635781   0.000002   0.000002
     21          7.298390        7.298390   0.000000   0.000000
     22          7.464623        7.464623   0.000000   0.000000
     23          7.759437        7.759437   0.000000   0.000000
     24          7.766595        7.766595   0.000000   0.000000
 
  0.3684211E+00  0.0000000E+00  0.5000000E+00  0.2500000E-01
      1        -44.232054      -44.232054   1.000000   1.000000
      2        -44.231460      -44.231460   1.000000   1.000000
      3        -44.228172      -44.228172   1.000000   1.000000
      4        -39.850424      -39.850424   1.000000   1.000000
      5        -39.844797      -39.844797   1.000000   1.000000
      6        -39.843907      -39.843907   1.000000   1.000000
      7         -4.846905       -4.846905   1.000000   1.000000
      8         -4.830080       -4.830080   1.000000   1.000000
      9          1.232289        1.232289   1.000000   1.000000
     10          1.386901        1.386901   1.000000   1.000000
     11          2.671189        2.671189   1.000000   1.000000
     12          2.718279        2.718279   1.000000   1.000000
     13          3.278608        3.278608   1.000000   1.000000
     14          3.338621        3.338621   1.000000   1.000000
     15          3.441505        3.441505   1.000000   1.000000
     16          4.018851        4.018851   1.000000   1.000000
     17          4.111032        4.111032   1.000000   1.000000
     18          5.284015        5.284015   1.000000   1.000000
     19          5.460988        5.460988   1.000000   1.000000
     20          6.616377        6.616377   0.000019   0.000019
     21          7.341989        7.341989   0.000000   0.000000
     22          7.445963        7.445963   0.000000   0.000000
     23          7.752989        7.752989   0.000000   0.000000
     24          7.779923        7.779923   0.000000   0.000000
 
  0.3947368E+00  0.0000000E+00  0.5000000E+00  0.2500000E-01
      1        -44.232108      -44.232108   1.000000   1.000000
      2        -44.231474      -44.231474   1.000000   1.000000
      3        -44.228163      -44.228163   1.000000   1.000000
      4        -39.850410      -39.850410   1.000000   1.000000
      5        -39.844878      -39.844878   1.000000   1.000000
      6        -39.843926      -39.843926   1.000000   1.000000
      7         -4.796653       -4.796653   1.000000   1.000000
      8         -4.778192       -4.778192   1.000000   1.000000
      9          1.112740        1.112740   1.000000   1.000000
     10          1.308678        1.308678   1.000000   1.000000
     11          2.658084        2.658084   1.000000   1.000000
     12          2.689243        2.689243   1.000000   1.000000
     13          3.261629        3.261629   1.000000   1.000000
     14          3.374358        3.374358   1.000000   1.000000
     15          3.451028        3.451028   1.000000   1.000000
     16          3.969868        3.969868   1.000000   1.000000
     17          4.045676        4.045676   1.000000   1.000000
     18          5.390964        5.390964   1.000000   1.000000
     19          5.451302        5.451302   1.000000   1.000000
     20          6.597879        6.597879   0.000161   0.000161
     21          7.385424        7.385424   0.000000   0.000000
     22          7.427458        7.427458   0.000000   0.000000
     23          7.749303        7.749303   0.000000   0.000000
     24          7.796188        7.796188   0.000000   0.000000
 
  0.4210526E+00  0.0000000E+00  0.5000000E+00  0.2500000E-01
      1        -44.232158      -44.232158   1.000000   1.000000
      2        -44.231487      -44.231487   1.000000   1.000000
      3        -44.228168      -44.228168   1.000000   1.000000
      4        -39.850413      -39.850413   1.000000   1.000000
      5        -39.844950      -39.844950   1.000000   1.000000
      6        -39.843945      -39.843945   1.000000   1.000000
      7         -4.755384       -4.755384   1.000000   1.000000
      8         -4.734695       -4.734695   1.000000   1.000000
      9          1.014512        1.014512   1.000000   1.000000
     10          1.243588        1.243588   1.000000   1.000000
     11          2.646962        2.646962   1.000000   1.000000
     12          2.656409        2.656409   1.000000   1.000000
     13          3.251894        3.251894   1.000000   1.000000
     14          3.410667        3.410667   1.000000   1.000000
     15          3.484257        3.484257   1.000000   1.000000
     16          3.909730        3.909730   1.000000   1.000000
     17          3.985345        3.985345   1.000000   1.000000
     18          5.445518        5.445518   1.000000   1.000000
     19          5.494932        5.494932   1.000000   1.000000
     20          6.579084        6.579084   0.001088   0.001088
     21          7.411311        7.411311   0.000000   0.000000
     22          7.420629        7.420629   0.000000   0.000000
     23          7.747161        7.747161   0.000000   0.000000
     24          7.825292        7.825292   0.000000   0.000000
 
  0.4473684E+00  0.0000000E+00  0.5000000E+00  0.2500000E-01
      1        -44.232183      -44.232183   1.000000   1.000000
      2        -44.231486      -44.231486   1.000000   1.000000
      3        -44.228155      -44.228155   1.000000   1.000000
      4        -39.850396      -39.850396   1.000000   1.000000
      5        -39.844990      -39.844990   1.000000   1.000000
      6        -39.843946      -39.843946   1.000000   1.000000
      7         -4.724602       -4.724602   1.000000   1.000000
      8         -4.701808       -4.701808   1.000000   1.000000
      9          0.941576        0.941576   1.000000   1.000000
     10          1.194457        1.194457   1.000000   1.000000
     11          2.627859        2.627859   1.000000   1.000000
     12          2.638525        2.638525   1.000000   1.000000
     13          3.247415        3.247415   1.000000   1.000000
     14          3.443813        3.443813   1.000000   1.000000
     15          3.531414        3.531414   1.000000   1.000000
     16          3.844676        3.844676   1.000000   1.000000
     17          3.934528        3.934528   1.000000   1.000000
     18          5.442311        5.442311   1.000000   1.000000
     19          5.583893        5.583893   1.000000   1.000000
     20          6.560767        6.560767   0.005434   0.005434
     21          7.398945        7.398945   0.000000   0.000000
     22          7.441642        7.441642   0.000000   0.000000
     23          7.745911        7.745911   0.000000   0.000000
     24          7.876919        7.876919   0.000000   0.000000
 
  0.4736842E+00  0.0000000E+00  0.5000000E+00  0.2500000E-01
      1        -44.232206      -44.232206   1.000000   1.000000
      2        -44.231488      -44.231488   1.000000   1.000000
      3        -44.228149      -44.228149   1.000000   1.000000
      4        -39.850388      -39.850388   1.000000   1.000000
      5        -39.845025      -39.845025   1.000000   1.000000
      6        -39.843950      -39.843950   1.000000   1.000000
      7         -4.705560       -4.705560   1.000000   1.000000
      8         -4.681302       -4.681302   1.000000   1.000000
      9          0.896703        0.896703   1.000000   1.000000
     10          1.163836        1.163836   1.000000   1.000000
     11          2.608947        2.608948   1.000000   1.000000
     12          2.633267        2.633267   1.000000   1.000000
     13          3.245594        3.245594   1.000000   1.000000
     14          3.468233        3.468233   1.000000   1.000000
     15          3.582184        3.582184   1.000000   1.000000
     16          3.783663        3.783663   1.000000   1.000000
     17          3.899308        3.899308   1.000000   1.000000
     18          5.440749        5.440749   1.000000   1.000000
     19          5.644977        5.644977   1.000000   1.000000
     20          6.546364        6.546364   0.016195   0.016195
     21          7.391226        7.391226   0.000000   0.000000
     22          7.449911        7.449911   0.000000   0.000000
     23          7.745243        7.745243   0.000000   0.000000
     24          7.951341        7.951341   0.000000   0.000000
 
  0.5000000E+00  0.0000000E+00  0.5000000E+00  0.2500000E-01
      1        -44.232217      -44.232217   1.000000   1.000000
      2        -44.231489      -44.231489   1.000000   1.000000
      3        -44.228141      -44.228141   1.000000   1.000000
      4        -39.850379      -39.850379   1.000000   1.000000
      5        -39.845042      -39.845042   1.000000   1.000000
      6        -39.843952      -39.843952   1.000000   1.000000
      7         -4.699106       -4.699106   1.000000   1.000000
      8         -4.674327       -4.674327   1.000000   1.000000
      9          0.881565        0.881565   1.000000   1.000000
     10          1.153435        1.153435   1.000000   1.000000
     11          2.602378        2.602378   1.000000   1.000000
     12          2.631482        2.631482   1.000000   1.000000
     13          3.245110        3.245110   1.000000   1.000000
     14          3.477446        3.477446   1.000000   1.000000
     15          3.610308        3.610308   1.000000   1.000000
     16          3.752205        3.752205   1.000000   1.000000
     17          3.886461        3.886461   1.000000   1.000000
     18          5.440290        5.440290   1.000000   1.000000
     19          5.666916        5.666916   1.000000   1.000000
     20          6.540743        6.540743   0.023821   0.023821
     21          7.388606        7.388606   0.000000   0.000000
     22          7.451609        7.451609   0.000000   0.000000
     23          7.745032        7.745032   0.000000   0.000000
     24          8.010576        8.010576   0.000000   0.000000
