       N       E                     dE             d eps       ncg     rms          rms(c)
DAV:   1    -0.656004238968E+01   -0.65600E+01   -0.88883E+02  5508   0.464E+02
DAV:   2    -0.211649478492E+02   -0.14605E+02   -0.14315E+02  4188   0.775E+01
DAV:   3    -0.214775232668E+02   -0.31258E+00   -0.31043E+00  5244   0.127E+01
DAV:   4    -0.214831983144E+02   -0.56750E-02   -0.56750E-02  4560   0.155E+00
DAV:   5    -0.214833661426E+02   -0.16783E-03   -0.16783E-03  5664   0.253E-01
DAV:   6    -0.214833728130E+02   -0.66703E-05   -0.66700E-05  4500   0.396E-02
DAV:   7    -0.214833731263E+02   -0.31333E-06   -0.31253E-06  3192   0.755E-03
   1 F= -.21483373E+02 E0= -.21482967E+02  d E =-.812403E-03  mag=     0.0000
