Generated by VASPKIT code
 1.000000
    4.1734900474543641    0.0000000000000000    0.0000000000000000
   -2.0867450237271821    3.6143484035370017    0.0000000000000000
    0.0000000000000000    0.0000000000000000    6.7534513474000004
   Mn   Te
     2     2
Direct
    0.0000000000000000    0.0000000000000000    0.0000000000000000    Mn001
    0.0000000000000000    0.0000000000000000    0.5000000000000000    Mn002
    0.3333333333333333    0.6666666666666666    0.2500000000000000    Te001
    0.6666666666666667    0.3333333333333334    0.7500000000000000    Te002
