PROCAR lm decomposed
# of k-points:   40         # of bands:   24         # of ions:    4

 k-point     1 :   -0.50000000 0.00000000 0.50000000     weight = 0.02500000

band     1 # energy  -44.23221727 # occ.  1.00000000
 
ion      s     py     pz     px    dxy    dyz    dz2    dxz  x2-y2    tot
    1  0.000  0.247  0.000  0.748  0.000  0.000  0.000  0.000  0.000  0.995
    2  0.000  0.000  0.000  0.000  0.000  0.000  0.000  0.000  0.000  0.000
    3  0.000  0.000  0.000  0.000  0.000  0.000  0.000  0.000  0.000  0.000
    4  0.000  0.000  0.000  0.000  0.000  0.000  0.000  0.000  0.000  0.000
tot    0.000  0.247  0.000  0.748  0.000  0.000  0.000  0.000  0.000  0.995
 
band     2 # energy  -44.23148879 # occ.  1.00000000
 
ion      s     py     pz     px    dxy    dyz    dz2    dxz  x2-y2    tot
    1  0.000  0.748  0.000  0.247  0.000  0.000  0.000  0.000  0.000  0.995
    2  0.000  0.000  0.000  0.000  0.000  0.000  0.000  0.000  0.000  0.000
    3  0.000  0.000  0.000  0.000  0.000  0.000  0.000  0.000  0.000  0.000
    4  0.000  0.000  0.000  0.000  0.000  0.000  0.000  0.000  0.000  0.000
tot    0.000  0.748  0.000  0.247  0.000  0.000  0.000  0.000  0.000  0.995
 
band     3 # energy  -44.22814147 # occ.  1.00000000
 
ion      s     py     pz     px    dxy    dyz    dz2    dxz  x2-y2    tot
    1  0.000  0.000  0.995  0.000  0.000  0.000  0.000  0.000  0.000  0.995
    2  0.000  0.000  0.000  0.000  0.000  0.000  0.000  0.000  0.000  0.000
    3  0.000  0.000  0.000  0.000  0.000  0.000  0.000  0.000  0.000  0.000
    4  0.000  0.000  0.000  0.000  0.000  0.000  0.000  0.000  0.000  0.000
tot    0.000  0.000  0.995  0.000  0.000  0.000  0.000  0.000  0.000  0.995
 
band     4 # energy  -39.85037933 # occ.  1.00000000
 
ion      s     py     pz     px    dxy    dyz    dz2    dxz  x2-y2    tot
    1  0.000  0.000  0.000  0.000  0.000  0.000  0.000  0.000  0.000  0.000
    2  0.000  0.000  0.995  0.000  0.000  0.000  0.000  0.000  0.000  0.995
    3  0.000  0.000  0.000  0.000  0.000  0.000  0.000  0.000  0.000  0.000
    4  0.000  0.000  0.000  0.000  0.000  0.000  0.000  0.000  0.000  0.000
tot    0.000  0.000  0.995  0.000  0.000  0.000  0.000  0.000  0.000  0.995
 
band     5 # energy  -39.84504232 # occ.  1.00000000
 
ion      s     py     pz     px    dxy    dyz    dz2    dxz  x2-y2    tot
    1  0.000  0.000  0.000  0.000  0.000  0.000  0.000  0.000  0.000  0.000
    2  0.000  0.247  0.000  0.749  0.000  0.000  0.000  0.000  0.000  0.995
    3  0.000  0.000  0.000  0.000  0.000  0.000  0.000  0.000  0.000  0.000
    4  0.000  0.000  0.000  0.000  0.000  0.000  0.000  0.000  0.000  0.000
tot    0.000  0.247  0.000  0.749  0.000  0.000  0.000  0.000  0.000  0.995
 
band     6 # energy  -39.84395200 # occ.  1.00000000
 
ion      s     py     pz     px    dxy    dyz    dz2    dxz  x2-y2    tot
    1  0.000  0.000  0.000  0.000  0.000  0.000  0.000  0.000  0.000  0.000
    2  0.000  0.749  0.000  0.247  0.000  0.000  0.000  0.000  0.000  0.995
    3  0.000  0.000  0.000  0.000  0.000  0.000  0.000  0.000  0.000  0.000
    4  0.000  0.000  0.000  0.000  0.000  0.000  0.000  0.000  0.000  0.000
tot    0.000  0.749  0.000  0.247  0.000  0.000  0.000  0.000  0.000  0.996
 
band     7 # energy   -4.69910558 # occ.  1.00000000
 
ion      s     py     pz     px    dxy    dyz    dz2    dxz  x2-y2    tot
    1  0.004  0.000  0.000  0.000  0.004  0.002  0.000  0.007  0.001  0.019
    2  0.000  0.001  0.001  0.004  0.000  0.000  0.000  0.000  0.000  0.006
    3  0.329  0.000  0.000  0.000  0.000  0.000  0.000  0.000  0.000  0.330
    4  0.329  0.000  0.000  0.000  0.000  0.000  0.000  0.000  0.000  0.330
tot    0.663  0.001  0.001  0.004  0.004  0.002  0.000  0.007  0.001  0.684
 
band     8 # energy   -4.67432676 # occ.  1.00000000
 
ion      s     py     pz     px    dxy    dyz    dz2    dxz  x2-y2    tot
    1  0.000  0.002  0.001  0.005  0.000  0.000  0.000  0.000  0.000  0.008
    2  0.003  0.000  0.000  0.000  0.002  0.001  0.000  0.004  0.001  0.012
    3  0.332  0.000  0.000  0.000  0.000  0.000  0.000  0.000  0.000  0.332
    4  0.332  0.000  0.000  0.000  0.000  0.000  0.000  0.000  0.000  0.332
tot    0.667  0.002  0.001  0.005  0.002  0.001  0.000  0.004  0.001  0.684
 
band     9 # energy    0.88156484 # occ.  1.00000000
 
ion      s     py     pz     px    dxy    dyz    dz2    dxz  x2-y2    tot
    1  0.084  0.000  0.000  0.000  0.027  0.004  0.007  0.011  0.009  0.143
    2  0.000  0.002  0.009  0.006  0.000  0.000  0.000  0.000  0.000  0.018
    3  0.000  0.025  0.020  0.076  0.000  0.000  0.000  0.000  0.000  0.121
    4  0.000  0.025  0.020  0.076  0.000  0.000  0.000  0.000  0.000  0.121
tot    0.085  0.052  0.048  0.157  0.027  0.004  0.007  0.012  0.009  0.402
 
band    10 # energy    1.15343508 # occ.  1.00000000
 
ion      s     py     pz     px    dxy    dyz    dz2    dxz  x2-y2    tot
    1  0.000  0.003  0.014  0.010  0.000  0.000  0.000  0.000  0.000  0.027
    2  0.064  0.000  0.000  0.000  0.006  0.001  0.002  0.002  0.002  0.077
    3  0.000  0.028  0.023  0.084  0.000  0.000  0.000  0.000  0.000  0.136
    4  0.000  0.028  0.023  0.084  0.000  0.000  0.000  0.000  0.000  0.136
tot    0.064  0.059  0.061  0.178  0.006  0.001  0.002  0.002  0.002  0.375
 
band    11 # energy    2.60237754 # occ.  1.00000000
 
ion      s     py     pz     px    dxy    dyz    dz2    dxz  x2-y2    tot
    1  0.003  0.000  0.000  0.000  0.185  0.041  0.160  0.123  0.062  0.575
    2  0.000  0.001  0.005  0.004  0.000  0.000  0.000  0.000  0.000  0.010
    3  0.000  0.002  0.060  0.007  0.001  0.000  0.000  0.000  0.000  0.071
    4  0.000  0.002  0.060  0.007  0.001  0.000  0.000  0.000  0.000  0.071
tot    0.004  0.006  0.125  0.019  0.187  0.041  0.160  0.123  0.062  0.728
 
band    12 # energy    2.63148191 # occ.  1.00000000
 
ion      s     py     pz     px    dxy    dyz    dz2    dxz  x2-y2    tot
    1  0.000  0.000  0.000  0.000  0.012  0.431  0.000  0.144  0.036  0.623
    2  0.000  0.004  0.000  0.001  0.000  0.000  0.000  0.000  0.000  0.006
    3  0.000  0.051  0.000  0.017  0.000  0.000  0.000  0.000  0.000  0.069
    4  0.000  0.051  0.000  0.017  0.000  0.000  0.000  0.000  0.000  0.069
tot    0.000  0.106  0.000  0.035  0.012  0.431  0.000  0.144  0.037  0.766
 
band    13 # energy    3.24510955 # occ.  1.00000000
 
ion      s     py     pz     px    dxy    dyz    dz2    dxz  x2-y2    tot
    1  0.001  0.000  0.000  0.000  0.047  0.118  0.302  0.355  0.016  0.840
    2  0.000  0.000  0.001  0.001  0.000  0.000  0.000  0.000  0.000  0.003
    3  0.001  0.000  0.009  0.000  0.000  0.000  0.001  0.000  0.000  0.012
    4  0.001  0.000  0.009  0.000  0.000  0.000  0.001  0.000  0.000  0.012
tot    0.004  0.000  0.019  0.001  0.048  0.119  0.303  0.356  0.016  0.867
 
band    14 # energy    3.47744575 # occ.  1.00000000
 
ion      s     py     pz     px    dxy    dyz    dz2    dxz  x2-y2    tot
    1  0.000  0.000  0.000  0.000  0.214  0.053  0.000  0.018  0.643  0.927
    2  0.000  0.000  0.000  0.000  0.000  0.000  0.000  0.000  0.000  0.000
    3  0.000  0.000  0.000  0.000  0.000  0.000  0.000  0.000  0.000  0.000
    4  0.000  0.000  0.000  0.000  0.000  0.000  0.000  0.000  0.000  0.000
tot    0.000  0.000  0.000  0.000  0.214  0.053  0.000  0.018  0.643  0.927
 
band    15 # energy    3.61030803 # occ.  1.00000000
 
ion      s     py     pz     px    dxy    dyz    dz2    dxz  x2-y2    tot
    1  0.017  0.000  0.000  0.000  0.316  0.013  0.396  0.038  0.105  0.884
    2  0.000  0.000  0.000  0.000  0.000  0.000  0.000  0.000  0.000  0.001
    3  0.000  0.002  0.000  0.006  0.000  0.000  0.000  0.000  0.000  0.008
    4  0.000  0.002  0.000  0.006  0.000  0.000  0.000  0.000  0.000  0.008
tot    0.017  0.004  0.001  0.012  0.316  0.013  0.396  0.038  0.105  0.902
 
band    16 # energy    3.75220501 # occ.  1.00000000
 
ion      s     py     pz     px    dxy    dyz    dz2    dxz  x2-y2    tot
    1  0.000  0.005  0.015  0.014  0.000  0.000  0.000  0.000  0.000  0.033
    2  0.004  0.000  0.000  0.000  0.038  0.015  0.020  0.046  0.013  0.136
    3  0.002  0.007  0.145  0.020  0.001  0.000  0.000  0.000  0.000  0.175
    4  0.002  0.007  0.145  0.020  0.001  0.000  0.000  0.000  0.000  0.175
tot    0.008  0.018  0.306  0.053  0.040  0.015  0.020  0.046  0.013  0.519
 
band    17 # energy    3.88646150 # occ.  1.00000000
 
ion      s     py     pz     px    dxy    dyz    dz2    dxz  x2-y2    tot
    1  0.000  0.023  0.000  0.008  0.000  0.000  0.000  0.000  0.000  0.031
    2  0.000  0.000  0.000  0.000  0.003  0.091  0.000  0.030  0.009  0.133
    3  0.000  0.138  0.000  0.046  0.000  0.000  0.000  0.000  0.000  0.185
    4  0.000  0.138  0.000  0.046  0.000  0.000  0.000  0.000  0.000  0.185
tot    0.000  0.299  0.000  0.100  0.003  0.091  0.000  0.030  0.010  0.533
 
band    18 # energy    5.44029017 # occ.  1.00000000
 
ion      s     py     pz     px    dxy    dyz    dz2    dxz  x2-y2    tot
    1  0.000  0.000  0.000  0.000  0.005  0.211  0.000  0.070  0.015  0.302
    2  0.000  0.023  0.000  0.008  0.000  0.000  0.000  0.000  0.000  0.031
    3  0.000  0.115  0.000  0.038  0.000  0.002  0.000  0.001  0.000  0.156
    4  0.000  0.115  0.000  0.038  0.000  0.002  0.000  0.001  0.000  0.156
tot    0.000  0.252  0.000  0.084  0.005  0.216  0.000  0.072  0.015  0.645
 
band    19 # energy    5.66691610 # occ.  1.00000000
 
ion      s     py     pz     px    dxy    dyz    dz2    dxz  x2-y2    tot
    1  0.007  0.000  0.000  0.000  0.102  0.052  0.035  0.155  0.034  0.384
    2  0.000  0.004  0.006  0.011  0.000  0.000  0.000  0.000  0.000  0.021
    3  0.019  0.004  0.114  0.012  0.000  0.000  0.000  0.000  0.000  0.150
    4  0.019  0.004  0.114  0.012  0.000  0.000  0.000  0.000  0.000  0.150
tot    0.045  0.012  0.234  0.036  0.102  0.052  0.036  0.156  0.034  0.706
 
band    20 # energy    6.54074266 # occ.  0.02382068
 
ion      s     py     pz     px    dxy    dyz    dz2    dxz  x2-y2    tot
    1  0.000  0.001  0.011  0.002  0.000  0.000  0.000  0.000  0.000  0.014
    2  0.001  0.000  0.000  0.000  0.119  0.063  0.236  0.190  0.040  0.648
    3  0.000  0.000  0.004  0.000  0.003  0.001  0.003  0.002  0.001  0.015
    4  0.000  0.000  0.004  0.000  0.003  0.001  0.003  0.002  0.001  0.015
tot    0.001  0.001  0.019  0.003  0.125  0.065  0.243  0.194  0.042  0.692
 
band    21 # energy    7.38860576 # occ.  0.00000000
 
ion      s     py     pz     px    dxy    dyz    dz2    dxz  x2-y2    tot
    1  0.000  0.004  0.000  0.001  0.000  0.000  0.000  0.000  0.000  0.005
    2  0.000  0.000  0.000  0.000  0.215  0.002  0.000  0.001  0.644  0.862
    3  0.000  0.002  0.000  0.001  0.000  0.002  0.000  0.001  0.001  0.005
    4  0.000  0.002  0.000  0.001  0.000  0.002  0.000  0.001  0.001  0.005
tot    0.000  0.007  0.000  0.002  0.215  0.006  0.000  0.002  0.645  0.878
 
band    22 # energy    7.45160926 # occ.  0.00000000
 
ion      s     py     pz     px    dxy    dyz    dz2    dxz  x2-y2    tot
    1  0.000  0.000  0.001  0.000  0.000  0.000  0.000  0.000  0.000  0.001
    2  0.024  0.000  0.000  0.000  0.262  0.006  0.459  0.018  0.087  0.856
    3  0.000  0.000  0.000  0.001  0.000  0.000  0.000  0.001  0.000  0.003
    4  0.000  0.000  0.000  0.001  0.000  0.000  0.000  0.001  0.000  0.003
tot    0.024  0.001  0.001  0.002  0.263  0.006  0.459  0.019  0.088  0.863
 
band    23 # energy    7.74503191 # occ.  0.00000000
 
ion      s     py     pz     px    dxy    dyz    dz2    dxz  x2-y2    tot
    1  0.000  0.017  0.000  0.006  0.000  0.000  0.000  0.000  0.000  0.023
    2  0.000  0.000  0.000  0.000  0.004  0.553  0.000  0.184  0.012  0.754
    3  0.000  0.019  0.000  0.006  0.000  0.005  0.000  0.002  0.000  0.031
    4  0.000  0.019  0.000  0.006  0.000  0.005  0.000  0.002  0.000  0.031
tot    0.000  0.054  0.000  0.018  0.004  0.562  0.000  0.188  0.013  0.839
 
band    24 # energy    8.01061294 # occ.  0.00000000
 
ion      s     py     pz     px    dxy    dyz    dz2    dxz  x2-y2    tot
    1  0.214  0.000  0.000  0.000  0.000  0.002  0.005  0.005  0.000  0.227
    2  0.000  0.004  0.006  0.011  0.000  0.000  0.000  0.000  0.000  0.020
    3  0.020  0.010  0.008  0.029  0.006  0.004  0.000  0.013  0.002  0.092
    4  0.020  0.010  0.008  0.029  0.006  0.004  0.000  0.013  0.002  0.092
tot    0.255  0.023  0.021  0.069  0.013  0.010  0.005  0.030  0.004  0.432
 

 k-point     2 :   -0.47368421 0.00000000 0.50000000     weight = 0.02500000

band     1 # energy  -44.23220567 # occ.  1.00000000
 
ion      s     py     pz     px    dxy    dyz    dz2    dxz  x2-y2    tot
    1  0.000  0.247  0.000  0.748  0.000  0.000  0.000  0.000  0.000  0.995
    2  0.000  0.000  0.000  0.000  0.000  0.000  0.000  0.000  0.000  0.000
    3  0.000  0.000  0.000  0.000  0.000  0.000  0.000  0.000  0.000  0.000
    4  0.000  0.000  0.000  0.000  0.000  0.000  0.000  0.000  0.000  0.000
tot    0.000  0.247  0.000  0.748  0.000  0.000  0.000  0.000  0.000  0.995
 
band     2 # energy  -44.23148793 # occ.  1.00000000
 
ion      s     py     pz     px    dxy    dyz    dz2    dxz  x2-y2    tot
    1  0.000  0.748  0.000  0.247  0.000  0.000  0.000  0.000  0.000  0.995
    2  0.000  0.000  0.000  0.000  0.000  0.000  0.000  0.000  0.000  0.000
    3  0.000  0.000  0.000  0.000  0.000  0.000  0.000  0.000  0.000  0.000
    4  0.000  0.000  0.000  0.000  0.000  0.000  0.000  0.000  0.000  0.000
tot    0.000  0.748  0.000  0.247  0.000  0.000  0.000  0.000  0.000  0.995
 
band     3 # energy  -44.22814933 # occ.  1.00000000
 
ion      s     py     pz     px    dxy    dyz    dz2    dxz  x2-y2    tot
    1  0.000  0.000  0.995  0.000  0.000  0.000  0.000  0.000  0.000  0.995
    2  0.000  0.000  0.000  0.000  0.000  0.000  0.000  0.000  0.000  0.000
    3  0.000  0.000  0.000  0.000  0.000  0.000  0.000  0.000  0.000  0.000
    4  0.000  0.000  0.000  0.000  0.000  0.000  0.000  0.000  0.000  0.000
tot    0.000  0.000  0.995  0.000  0.000  0.000  0.000  0.000  0.000  0.995
 
band     4 # energy  -39.85038794 # occ.  1.00000000
 
ion      s     py     pz     px    dxy    dyz    dz2    dxz  x2-y2    tot
    1  0.000  0.000  0.000  0.000  0.000  0.000  0.000  0.000  0.000  0.000
    2  0.000  0.000  0.995  0.000  0.000  0.000  0.000  0.000  0.000  0.995
    3  0.000  0.000  0.000  0.000  0.000  0.000  0.000  0.000  0.000  0.000
    4  0.000  0.000  0.000  0.000  0.000  0.000  0.000  0.000  0.000  0.000
tot    0.000  0.000  0.995  0.000  0.000  0.000  0.000  0.000  0.000  0.995
 
band     5 # energy  -39.84502471 # occ.  1.00000000
 
ion      s     py     pz     px    dxy    dyz    dz2    dxz  x2-y2    tot
    1  0.000  0.000  0.000  0.000  0.000  0.000  0.000  0.000  0.000  0.000
    2  0.000  0.247  0.000  0.749  0.000  0.000  0.000  0.000  0.000  0.995
    3  0.000  0.000  0.000  0.000  0.000  0.000  0.000  0.000  0.000  0.000
    4  0.000  0.000  0.000  0.000  0.000  0.000  0.000  0.000  0.000  0.000
tot    0.000  0.247  0.000  0.749  0.000  0.000  0.000  0.000  0.000  0.995
 
band     6 # energy  -39.84394999 # occ.  1.00000000
 
ion      s     py     pz     px    dxy    dyz    dz2    dxz  x2-y2    tot
    1  0.000  0.000  0.000  0.000  0.000  0.000  0.000  0.000  0.000  0.000
    2  0.000  0.749  0.000  0.247  0.000  0.000  0.000  0.000  0.000  0.995
    3  0.000  0.000  0.000  0.000  0.000  0.000  0.000  0.000  0.000  0.000
    4  0.000  0.000  0.000  0.000  0.000  0.000  0.000  0.000  0.000  0.000
tot    0.000  0.749  0.000  0.247  0.000  0.000  0.000  0.000  0.000  0.996
 
band     7 # energy   -4.70555975 # occ.  1.00000000
 
ion      s     py     pz     px    dxy    dyz    dz2    dxz  x2-y2    tot
    1  0.004  0.000  0.000  0.000  0.004  0.002  0.000  0.007  0.001  0.019
    2  0.000  0.001  0.001  0.004  0.000  0.000  0.000  0.000  0.000  0.006
    3  0.329  0.000  0.000  0.000  0.000  0.000  0.000  0.000  0.000  0.329
    4  0.329  0.000  0.000  0.000  0.000  0.000  0.000  0.000  0.000  0.329
tot    0.662  0.001  0.001  0.004  0.004  0.002  0.000  0.007  0.001  0.683
 
band     8 # energy   -4.68130202 # occ.  1.00000000
 
ion      s     py     pz     px    dxy    dyz    dz2    dxz  x2-y2    tot
    1  0.000  0.002  0.001  0.005  0.000  0.000  0.000  0.000  0.000  0.008
    2  0.003  0.000  0.000  0.000  0.002  0.001  0.000  0.004  0.001  0.012
    3  0.332  0.000  0.000  0.000  0.000  0.000  0.000  0.000  0.000  0.332
    4  0.332  0.000  0.000  0.000  0.000  0.000  0.000  0.000  0.000  0.332
tot    0.666  0.002  0.001  0.005  0.002  0.001  0.000  0.004  0.001  0.683
 
band     9 # energy    0.89670315 # occ.  1.00000000
 
ion      s     py     pz     px    dxy    dyz    dz2    dxz  x2-y2    tot
    1  0.084  0.000  0.000  0.000  0.027  0.004  0.007  0.011  0.009  0.143
    2  0.000  0.002  0.009  0.006  0.000  0.000  0.000  0.000  0.000  0.018
    3  0.001  0.025  0.020  0.075  0.000  0.000  0.000  0.000  0.000  0.121
    4  0.001  0.025  0.020  0.075  0.000  0.000  0.000  0.000  0.000  0.121
tot    0.086  0.052  0.049  0.157  0.027  0.004  0.007  0.012  0.009  0.403
 
band    10 # energy    1.16383580 # occ.  1.00000000
 
ion      s     py     pz     px    dxy    dyz    dz2    dxz  x2-y2    tot
    1  0.000  0.003  0.014  0.010  0.001  0.000  0.000  0.001  0.000  0.031
    2  0.064  0.000  0.000  0.000  0.006  0.001  0.002  0.002  0.002  0.076
    3  0.000  0.028  0.024  0.084  0.000  0.000  0.000  0.000  0.000  0.136
    4  0.000  0.028  0.024  0.084  0.000  0.000  0.000  0.000  0.000  0.136
tot    0.065  0.059  0.061  0.177  0.008  0.001  0.002  0.003  0.003  0.378
 
band    11 # energy    2.60894750 # occ.  1.00000000
 
ion      s     py     pz     px    dxy    dyz    dz2    dxz  x2-y2    tot
    1  0.003  0.000  0.000  0.000  0.181  0.041  0.166  0.122  0.060  0.573
    2  0.000  0.001  0.005  0.004  0.000  0.000  0.000  0.000  0.000  0.011
    3  0.000  0.003  0.060  0.008  0.001  0.000  0.000  0.000  0.000  0.071
    4  0.000  0.003  0.060  0.008  0.001  0.000  0.000  0.000  0.000  0.071
tot    0.004  0.006  0.125  0.019  0.183  0.041  0.166  0.122  0.061  0.726
 
band    12 # energy    2.63326667 # occ.  1.00000000
 
ion      s     py     pz     px    dxy    dyz    dz2    dxz  x2-y2    tot
    1  0.000  0.000  0.000  0.000  0.012  0.431  0.000  0.144  0.037  0.623
    2  0.000  0.004  0.000  0.001  0.000  0.000  0.000  0.000  0.000  0.006
    3  0.000  0.051  0.000  0.017  0.000  0.000  0.000  0.000  0.000  0.069
    4  0.000  0.051  0.000  0.017  0.000  0.000  0.000  0.000  0.000  0.069
tot    0.000  0.106  0.000  0.035  0.013  0.431  0.000  0.144  0.038  0.766
 
band    13 # energy    3.24559439 # occ.  1.00000000
 
ion      s     py     pz     px    dxy    dyz    dz2    dxz  x2-y2    tot
    1  0.001  0.000  0.000  0.000  0.045  0.118  0.302  0.355  0.015  0.836
    2  0.000  0.001  0.001  0.002  0.000  0.000  0.000  0.000  0.000  0.003
    3  0.001  0.000  0.010  0.000  0.000  0.000  0.001  0.000  0.000  0.013
    4  0.001  0.000  0.010  0.000  0.000  0.000  0.001  0.000  0.000  0.013
tot    0.003  0.001  0.020  0.002  0.046  0.119  0.303  0.356  0.015  0.865
 
band    14 # energy    3.46823291 # occ.  1.00000000
 
ion      s     py     pz     px    dxy    dyz    dz2    dxz  x2-y2    tot
    1  0.000  0.000  0.000  0.000  0.210  0.053  0.000  0.018  0.629  0.910
    2  0.000  0.000  0.000  0.000  0.000  0.001  0.000  0.000  0.000  0.002
    3  0.000  0.003  0.000  0.001  0.000  0.000  0.000  0.000  0.000  0.004
    4  0.000  0.003  0.000  0.001  0.000  0.000  0.000  0.000  0.000  0.004
tot    0.000  0.006  0.000  0.002  0.210  0.054  0.000  0.018  0.630  0.919
 
band    15 # energy    3.58218375 # occ.  1.00000000
 
ion      s     py     pz     px    dxy    dyz    dz2    dxz  x2-y2    tot
    1  0.016  0.000  0.002  0.001  0.281  0.012  0.318  0.036  0.094  0.761
    2  0.001  0.000  0.000  0.000  0.005  0.002  0.003  0.007  0.002  0.020
    3  0.001  0.003  0.020  0.008  0.000  0.000  0.000  0.000  0.000  0.032
    4  0.001  0.003  0.020  0.008  0.000  0.000  0.000  0.000  0.000  0.032
tot    0.018  0.006  0.042  0.018  0.286  0.015  0.321  0.044  0.095  0.844
 
band    16 # energy    3.78366286 # occ.  1.00000000
 
ion      s     py     pz     px    dxy    dyz    dz2    dxz  x2-y2    tot
    1  0.001  0.004  0.013  0.012  0.041  0.001  0.071  0.002  0.014  0.158
    2  0.003  0.000  0.000  0.000  0.032  0.013  0.018  0.038  0.011  0.116
    3  0.001  0.006  0.125  0.018  0.001  0.000  0.000  0.000  0.000  0.151
    4  0.001  0.006  0.125  0.018  0.001  0.000  0.000  0.000  0.000  0.151
tot    0.007  0.016  0.263  0.047  0.074  0.013  0.089  0.040  0.025  0.576
 
band    17 # energy    3.89930812 # occ.  1.00000000
 
ion      s     py     pz     px    dxy    dyz    dz2    dxz  x2-y2    tot
    1  0.000  0.022  0.000  0.007  0.004  0.001  0.000  0.000  0.012  0.047
    2  0.000  0.000  0.000  0.000  0.003  0.090  0.000  0.030  0.010  0.132
    3  0.000  0.136  0.000  0.045  0.000  0.000  0.000  0.000  0.000  0.181
    4  0.000  0.136  0.000  0.045  0.000  0.000  0.000  0.000  0.000  0.181
tot    0.000  0.294  0.000  0.098  0.007  0.091  0.000  0.030  0.022  0.542
 
band    18 # energy    5.44074896 # occ.  1.00000000
 
ion      s     py     pz     px    dxy    dyz    dz2    dxz  x2-y2    tot
    1  0.000  0.000  0.000  0.000  0.005  0.210  0.000  0.070  0.016  0.301
    2  0.000  0.023  0.000  0.008  0.000  0.000  0.000  0.000  0.001  0.032
    3  0.000  0.115  0.000  0.038  0.000  0.002  0.000  0.001  0.000  0.156
    4  0.000  0.115  0.000  0.038  0.000  0.002  0.000  0.001  0.000  0.156
tot    0.000  0.252  0.000  0.084  0.006  0.215  0.000  0.072  0.017  0.645
 
band    19 # energy    5.64497689 # occ.  1.00000000
 
ion      s     py     pz     px    dxy    dyz    dz2    dxz  x2-y2    tot
    1  0.006  0.000  0.000  0.000  0.099  0.052  0.036  0.155  0.033  0.382
    2  0.001  0.003  0.006  0.010  0.000  0.000  0.003  0.001  0.000  0.025
    3  0.019  0.004  0.112  0.013  0.000  0.000  0.000  0.000  0.000  0.149
    4  0.019  0.004  0.112  0.013  0.000  0.000  0.000  0.000  0.000  0.149
tot    0.045  0.012  0.230  0.036  0.100  0.052  0.039  0.156  0.033  0.705
 
band    20 # energy    6.54636419 # occ.  0.01619540
 
ion      s     py     pz     px    dxy    dyz    dz2    dxz  x2-y2    tot
    1  0.001  0.001  0.010  0.002  0.001  0.000  0.000  0.001  0.000  0.016
    2  0.001  0.000  0.000  0.000  0.122  0.063  0.230  0.188  0.041  0.644
    3  0.001  0.000  0.005  0.000  0.003  0.001  0.003  0.002  0.001  0.016
    4  0.001  0.000  0.005  0.000  0.003  0.001  0.003  0.002  0.001  0.016
tot    0.003  0.001  0.020  0.003  0.129  0.064  0.236  0.192  0.043  0.692
 
band    21 # energy    7.39122650 # occ.  0.00000000
 
ion      s     py     pz     px    dxy    dyz    dz2    dxz  x2-y2    tot
    1  0.000  0.004  0.000  0.001  0.000  0.000  0.000  0.000  0.000  0.005
    2  0.000  0.000  0.000  0.000  0.215  0.002  0.000  0.001  0.644  0.861
    3  0.000  0.002  0.000  0.001  0.000  0.002  0.000  0.001  0.001  0.006
    4  0.000  0.002  0.000  0.001  0.000  0.002  0.000  0.001  0.001  0.006
tot    0.000  0.008  0.000  0.003  0.215  0.006  0.000  0.002  0.645  0.878
 
band    22 # energy    7.44991056 # occ.  0.00000000
 
ion      s     py     pz     px    dxy    dyz    dz2    dxz  x2-y2    tot
    1  0.002  0.000  0.001  0.000  0.000  0.000  0.000  0.000  0.000  0.004
    2  0.021  0.000  0.000  0.000  0.265  0.004  0.456  0.012  0.088  0.847
    3  0.000  0.000  0.001  0.001  0.000  0.000  0.000  0.001  0.000  0.005
    4  0.000  0.000  0.001  0.001  0.000  0.000  0.000  0.001  0.000  0.005
tot    0.024  0.001  0.003  0.003  0.266  0.005  0.457  0.014  0.089  0.861
 
band    23 # energy    7.74524324 # occ.  0.00000000
 
ion      s     py     pz     px    dxy    dyz    dz2    dxz  x2-y2    tot
    1  0.000  0.017  0.000  0.006  0.000  0.000  0.000  0.000  0.000  0.023
    2  0.000  0.000  0.000  0.000  0.004  0.553  0.000  0.184  0.011  0.753
    3  0.000  0.019  0.000  0.006  0.000  0.005  0.000  0.002  0.000  0.032
    4  0.000  0.019  0.000  0.006  0.000  0.005  0.000  0.002  0.000  0.032
tot    0.000  0.055  0.000  0.018  0.004  0.562  0.000  0.187  0.012  0.839
 
band    24 # energy    7.95135993 # occ.  0.00000000
 
ion      s     py     pz     px    dxy    dyz    dz2    dxz  x2-y2    tot
    1  0.152  0.001  0.000  0.003  0.000  0.001  0.004  0.003  0.000  0.163
    2  0.010  0.003  0.004  0.008  0.024  0.041  0.021  0.123  0.008  0.242
    3  0.024  0.006  0.006  0.019  0.004  0.003  0.000  0.010  0.001  0.075
    4  0.024  0.006  0.006  0.019  0.004  0.003  0.000  0.010  0.001  0.075
tot    0.211  0.016  0.017  0.049  0.033  0.048  0.025  0.145  0.011  0.555
 

 k-point     3 :   -0.44736842 0.00000000 0.50000000     weight = 0.02500000

band     1 # energy  -44.23218325 # occ.  1.00000000
 
ion      s     py     pz     px    dxy    dyz    dz2    dxz  x2-y2    tot
    1  0.000  0.247  0.000  0.748  0.000  0.000  0.000  0.000  0.000  0.995
    2  0.000  0.000  0.000  0.000  0.000  0.000  0.000  0.000  0.000  0.000
    3  0.000  0.000  0.000  0.000  0.000  0.000  0.000  0.000  0.000  0.000
    4  0.000  0.000  0.000  0.000  0.000  0.000  0.000  0.000  0.000  0.000
tot    0.000  0.247  0.000  0.748  0.000  0.000  0.000  0.000  0.000  0.995
 
band     2 # energy  -44.23148622 # occ.  1.00000000
 
ion      s     py     pz     px    dxy    dyz    dz2    dxz  x2-y2    tot
    1  0.000  0.749  0.000  0.247  0.000  0.000  0.000  0.000  0.000  0.995
    2  0.000  0.000  0.000  0.000  0.000  0.000  0.000  0.000  0.000  0.000
    3  0.000  0.000  0.000  0.000  0.000  0.000  0.000  0.000  0.000  0.000
    4  0.000  0.000  0.000  0.000  0.000  0.000  0.000  0.000  0.000  0.000
tot    0.000  0.749  0.000  0.247  0.000  0.000  0.000  0.000  0.000  0.995
 
band     3 # energy  -44.22815468 # occ.  1.00000000
 
ion      s     py     pz     px    dxy    dyz    dz2    dxz  x2-y2    tot
    1  0.000  0.000  0.995  0.000  0.000  0.000  0.000  0.000  0.000  0.995
    2  0.000  0.000  0.000  0.000  0.000  0.000  0.000  0.000  0.000  0.000
    3  0.000  0.000  0.000  0.000  0.000  0.000  0.000  0.000  0.000  0.000
    4  0.000  0.000  0.000  0.000  0.000  0.000  0.000  0.000  0.000  0.000
tot    0.000  0.000  0.995  0.000  0.000  0.000  0.000  0.000  0.000  0.995
 
band     4 # energy  -39.85039584 # occ.  1.00000000
 
ion      s     py     pz     px    dxy    dyz    dz2    dxz  x2-y2    tot
    1  0.000  0.000  0.000  0.000  0.000  0.000  0.000  0.000  0.000  0.000
    2  0.000  0.000  0.995  0.000  0.000  0.000  0.000  0.000  0.000  0.995
    3  0.000  0.000  0.000  0.000  0.000  0.000  0.000  0.000  0.000  0.000
    4  0.000  0.000  0.000  0.000  0.000  0.000  0.000  0.000  0.000  0.000
tot    0.000  0.000  0.995  0.000  0.000  0.000  0.000  0.000  0.000  0.995
 
band     5 # energy  -39.84498960 # occ.  1.00000000
 
ion      s     py     pz     px    dxy    dyz    dz2    dxz  x2-y2    tot
    1  0.000  0.000  0.000  0.000  0.000  0.000  0.000  0.000  0.000  0.000
    2  0.000  0.247  0.000  0.749  0.000  0.000  0.000  0.000  0.000  0.995
    3  0.000  0.000  0.000  0.000  0.000  0.000  0.000  0.000  0.000  0.000
    4  0.000  0.000  0.000  0.000  0.000  0.000  0.000  0.000  0.000  0.000
tot    0.000  0.247  0.000  0.749  0.000  0.000  0.000  0.000  0.000  0.995
 
band     6 # energy  -39.84394631 # occ.  1.00000000
 
ion      s     py     pz     px    dxy    dyz    dz2    dxz  x2-y2    tot
    1  0.000  0.000  0.000  0.000  0.000  0.000  0.000  0.000  0.000  0.000
    2  0.000  0.749  0.000  0.247  0.000  0.000  0.000  0.000  0.000  0.995
    3  0.000  0.000  0.000  0.000  0.000  0.000  0.000  0.000  0.000  0.000
    4  0.000  0.000  0.000  0.000  0.000  0.000  0.000  0.000  0.000  0.000
tot    0.000  0.749  0.000  0.247  0.000  0.000  0.000  0.000  0.000  0.996
 
band     7 # energy   -4.72460179 # occ.  1.00000000
 
ion      s     py     pz     px    dxy    dyz    dz2    dxz  x2-y2    tot
    1  0.004  0.000  0.000  0.000  0.003  0.002  0.000  0.007  0.001  0.019
    2  0.000  0.001  0.001  0.004  0.000  0.000  0.000  0.000  0.000  0.007
    3  0.328  0.000  0.000  0.000  0.000  0.000  0.000  0.000  0.000  0.328
    4  0.328  0.000  0.000  0.000  0.000  0.000  0.000  0.000  0.000  0.328
tot    0.660  0.001  0.001  0.004  0.004  0.002  0.000  0.007  0.001  0.681
 
band     8 # energy   -4.70180806 # occ.  1.00000000
 
ion      s     py     pz     px    dxy    dyz    dz2    dxz  x2-y2    tot
    1  0.001  0.002  0.001  0.005  0.000  0.000  0.000  0.000  0.000  0.008
    2  0.003  0.000  0.000  0.000  0.002  0.001  0.000  0.004  0.001  0.012
    3  0.330  0.000  0.000  0.000  0.000  0.000  0.000  0.000  0.000  0.330
    4  0.330  0.000  0.000  0.000  0.000  0.000  0.000  0.000  0.000  0.330
tot    0.664  0.002  0.001  0.005  0.002  0.001  0.000  0.004  0.001  0.681
 
band     9 # energy    0.94157623 # occ.  1.00000000
 
ion      s     py     pz     px    dxy    dyz    dz2    dxz  x2-y2    tot
    1  0.083  0.000  0.000  0.000  0.028  0.004  0.007  0.011  0.009  0.143
    2  0.000  0.002  0.009  0.006  0.001  0.000  0.000  0.001  0.000  0.019
    3  0.002  0.025  0.021  0.075  0.000  0.000  0.000  0.000  0.000  0.123
    4  0.002  0.025  0.021  0.075  0.000  0.000  0.000  0.000  0.000  0.123
tot    0.088  0.052  0.050  0.156  0.029  0.004  0.007  0.012  0.010  0.408
 
band    10 # energy    1.19445702 # occ.  1.00000000
 
ion      s     py     pz     px    dxy    dyz    dz2    dxz  x2-y2    tot
    1  0.000  0.003  0.013  0.009  0.006  0.002  0.000  0.005  0.002  0.040
    2  0.063  0.000  0.000  0.000  0.006  0.001  0.002  0.002  0.002  0.075
    3  0.001  0.027  0.025  0.082  0.000  0.000  0.000  0.000  0.000  0.136
    4  0.001  0.027  0.025  0.082  0.000  0.000  0.000  0.000  0.000  0.136
tot    0.066  0.058  0.062  0.174  0.012  0.002  0.002  0.007  0.004  0.386
 
band    11 # energy    2.62785869 # occ.  1.00000000
 
ion      s     py     pz     px    dxy    dyz    dz2    dxz  x2-y2    tot
    1  0.002  0.000  0.000  0.001  0.168  0.039  0.185  0.116  0.056  0.567
    2  0.000  0.001  0.006  0.004  0.000  0.000  0.000  0.000  0.000  0.011
    3  0.001  0.003  0.059  0.009  0.001  0.000  0.000  0.000  0.000  0.072
    4  0.001  0.003  0.059  0.009  0.001  0.000  0.000  0.000  0.000  0.072
tot    0.003  0.007  0.124  0.022  0.170  0.039  0.185  0.116  0.057  0.722
 
band    12 # energy    2.63852548 # occ.  1.00000000
 
ion      s     py     pz     px    dxy    dyz    dz2    dxz  x2-y2    tot
    1  0.000  0.000  0.000  0.000  0.013  0.430  0.000  0.143  0.039  0.625
    2  0.000  0.004  0.000  0.001  0.000  0.000  0.000  0.000  0.000  0.006
    3  0.000  0.051  0.000  0.017  0.000  0.000  0.000  0.000  0.000  0.068
    4  0.000  0.051  0.000  0.017  0.000  0.000  0.000  0.000  0.000  0.068
tot    0.000  0.105  0.000  0.035  0.013  0.430  0.000  0.143  0.040  0.767
 
band    13 # energy    3.24741471 # occ.  1.00000000
 
ion      s     py     pz     px    dxy    dyz    dz2    dxz  x2-y2    tot
    1  0.001  0.000  0.000  0.000  0.040  0.118  0.299  0.354  0.013  0.826
    2  0.000  0.001  0.001  0.002  0.000  0.000  0.001  0.000  0.000  0.004
    3  0.001  0.000  0.011  0.001  0.000  0.000  0.001  0.000  0.000  0.015
    4  0.001  0.000  0.011  0.001  0.000  0.000  0.001  0.000  0.000  0.015
tot    0.003  0.001  0.024  0.003  0.041  0.118  0.301  0.355  0.014  0.860
 
band    14 # energy    3.44381321 # occ.  1.00000000
 
ion      s     py     pz     px    dxy    dyz    dz2    dxz  x2-y2    tot
    1  0.000  0.001  0.000  0.000  0.200  0.054  0.000  0.018  0.600  0.873
    2  0.000  0.000  0.000  0.000  0.000  0.004  0.000  0.001  0.000  0.005
    3  0.000  0.008  0.000  0.003  0.000  0.000  0.000  0.000  0.000  0.011
    4  0.000  0.008  0.000  0.003  0.000  0.000  0.000  0.000  0.000  0.011
tot    0.000  0.017  0.000  0.006  0.200  0.058  0.000  0.019  0.600  0.900
 
band    15 # energy    3.53141374 # occ.  1.00000000
 
ion      s     py     pz     px    dxy    dyz    dz2    dxz  x2-y2    tot
    1  0.016  0.001  0.004  0.002  0.262  0.013  0.235  0.038  0.087  0.658
    2  0.002  0.000  0.000  0.000  0.008  0.004  0.005  0.013  0.003  0.036
    3  0.001  0.004  0.035  0.011  0.000  0.000  0.000  0.000  0.000  0.051
    4  0.001  0.004  0.035  0.011  0.000  0.000  0.000  0.000  0.000  0.051
tot    0.020  0.008  0.074  0.024  0.271  0.017  0.240  0.051  0.090  0.795
 
band    16 # energy    3.84467613 # occ.  1.00000000
 
ion      s     py     pz     px    dxy    dyz    dz2    dxz  x2-y2    tot
    1  0.002  0.003  0.011  0.010  0.075  0.001  0.136  0.002  0.025  0.265
    2  0.002  0.000  0.000  0.001  0.027  0.010  0.017  0.030  0.009  0.097
    3  0.001  0.005  0.108  0.016  0.001  0.000  0.000  0.000  0.000  0.132
    4  0.001  0.005  0.108  0.016  0.001  0.000  0.000  0.000  0.000  0.132
tot    0.005  0.015  0.228  0.044  0.103  0.011  0.153  0.033  0.034  0.625
 
band    17 # energy    3.93452837 # occ.  1.00000000
 
ion      s     py     pz     px    dxy    dyz    dz2    dxz  x2-y2    tot
    1  0.000  0.021  0.000  0.007  0.013  0.003  0.000  0.001  0.038  0.083
    2  0.000  0.000  0.000  0.000  0.003  0.088  0.000  0.029  0.010  0.130
    3  0.000  0.130  0.000  0.043  0.000  0.000  0.000  0.000  0.000  0.174
    4  0.000  0.130  0.000  0.043  0.000  0.000  0.000  0.000  0.000  0.174
tot    0.000  0.282  0.000  0.094  0.016  0.091  0.000  0.030  0.048  0.561
 
band    18 # energy    5.44231082 # occ.  1.00000000
 
ion      s     py     pz     px    dxy    dyz    dz2    dxz  x2-y2    tot
    1  0.000  0.000  0.000  0.000  0.006  0.207  0.000  0.069  0.017  0.298
    2  0.000  0.022  0.000  0.007  0.001  0.000  0.000  0.000  0.004  0.035
    3  0.000  0.114  0.000  0.038  0.000  0.002  0.000  0.001  0.000  0.156
    4  0.000  0.114  0.000  0.038  0.000  0.002  0.000  0.001  0.000  0.156
tot    0.000  0.252  0.000  0.084  0.007  0.212  0.000  0.071  0.020  0.645
 
band    19 # energy    5.58389296 # occ.  1.00000000
 
ion      s     py     pz     px    dxy    dyz    dz2    dxz  x2-y2    tot
    1  0.005  0.000  0.001  0.001  0.093  0.052  0.039  0.155  0.031  0.378
    2  0.005  0.003  0.006  0.009  0.000  0.001  0.009  0.002  0.000  0.035
    3  0.018  0.004  0.107  0.013  0.000  0.000  0.000  0.001  0.000  0.144
    4  0.018  0.004  0.107  0.013  0.000  0.000  0.000  0.001  0.000  0.144
tot    0.046  0.012  0.222  0.037  0.093  0.053  0.049  0.158  0.031  0.701
 
band    20 # energy    6.56076742 # occ.  0.00543362
 
ion      s     py     pz     px    dxy    dyz    dz2    dxz  x2-y2    tot
    1  0.004  0.001  0.009  0.002  0.003  0.001  0.000  0.002  0.001  0.021
    2  0.002  0.000  0.000  0.001  0.133  0.061  0.213  0.182  0.044  0.635
    3  0.002  0.000  0.006  0.000  0.003  0.001  0.003  0.002  0.001  0.018
    4  0.002  0.000  0.006  0.000  0.003  0.001  0.003  0.002  0.001  0.018
tot    0.009  0.001  0.021  0.003  0.142  0.063  0.219  0.188  0.047  0.691
 
band    21 # energy    7.39894486 # occ.  0.00000000
 
ion      s     py     pz     px    dxy    dyz    dz2    dxz  x2-y2    tot
    1  0.000  0.004  0.000  0.001  0.000  0.001  0.000  0.000  0.000  0.006
    2  0.000  0.000  0.000  0.000  0.214  0.001  0.000  0.000  0.642  0.858
    3  0.000  0.003  0.000  0.001  0.000  0.002  0.000  0.001  0.001  0.007
    4  0.000  0.003  0.000  0.001  0.000  0.002  0.000  0.001  0.001  0.007
tot    0.000  0.009  0.000  0.003  0.214  0.006  0.000  0.002  0.643  0.877
 
band    22 # energy    7.44164177 # occ.  0.00000000
 
ion      s     py     pz     px    dxy    dyz    dz2    dxz  x2-y2    tot
    1  0.010  0.000  0.001  0.000  0.001  0.000  0.001  0.001  0.000  0.013
    2  0.015  0.000  0.001  0.000  0.270  0.001  0.440  0.002  0.090  0.818
    3  0.001  0.001  0.003  0.003  0.000  0.000  0.000  0.001  0.000  0.011
    4  0.001  0.001  0.003  0.003  0.000  0.000  0.000  0.001  0.000  0.011
tot    0.027  0.002  0.009  0.005  0.271  0.002  0.442  0.005  0.090  0.853
 
band    23 # energy    7.74591092 # occ.  0.00000000
 
ion      s     py     pz     px    dxy    dyz    dz2    dxz  x2-y2    tot
    1  0.000  0.017  0.000  0.006  0.000  0.000  0.000  0.000  0.001  0.024
    2  0.000  0.000  0.000  0.000  0.003  0.554  0.000  0.185  0.009  0.750
    3  0.000  0.019  0.000  0.006  0.000  0.005  0.000  0.002  0.000  0.032
    4  0.000  0.019  0.000  0.006  0.000  0.005  0.000  0.002  0.000  0.032
tot    0.000  0.056  0.000  0.019  0.003  0.563  0.000  0.188  0.010  0.839
 
band    24 # energy    7.87692129 # occ.  0.00000000
 
ion      s     py     pz     px    dxy    dyz    dz2    dxz  x2-y2    tot
    1  0.116  0.001  0.000  0.002  0.001  0.000  0.003  0.001  0.000  0.125
    2  0.015  0.003  0.003  0.008  0.016  0.071  0.061  0.212  0.005  0.393
    3  0.025  0.004  0.004  0.013  0.003  0.003  0.000  0.008  0.001  0.061
    4  0.025  0.004  0.004  0.013  0.003  0.003  0.000  0.008  0.001  0.061
tot    0.180  0.012  0.012  0.036  0.023  0.076  0.064  0.229  0.008  0.639
 

 k-point     4 :   -0.42105263 0.00000000 0.50000000     weight = 0.02500000

band     1 # energy  -44.23215759 # occ.  1.00000000
 
ion      s     py     pz     px    dxy    dyz    dz2    dxz  x2-y2    tot
    1  0.000  0.247  0.000  0.749  0.000  0.000  0.000  0.000  0.000  0.995
    2  0.000  0.000  0.000  0.000  0.000  0.000  0.000  0.000  0.000  0.000
    3  0.000  0.000  0.000  0.000  0.000  0.000  0.000  0.000  0.000  0.000
    4  0.000  0.000  0.000  0.000  0.000  0.000  0.000  0.000  0.000  0.000
tot    0.000  0.247  0.000  0.749  0.000  0.000  0.000  0.000  0.000  0.995
 
band     2 # energy  -44.23148653 # occ.  1.00000000
 
ion      s     py     pz     px    dxy    dyz    dz2    dxz  x2-y2    tot
    1  0.000  0.749  0.000  0.247  0.000  0.000  0.000  0.000  0.000  0.995
    2  0.000  0.000  0.000  0.000  0.000  0.000  0.000  0.000  0.000  0.000
    3  0.000  0.000  0.000  0.000  0.000  0.000  0.000  0.000  0.000  0.000
    4  0.000  0.000  0.000  0.000  0.000  0.000  0.000  0.000  0.000  0.000
tot    0.000  0.749  0.000  0.247  0.000  0.000  0.000  0.000  0.000  0.995
 
band     3 # energy  -44.22816804 # occ.  1.00000000
 
ion      s     py     pz     px    dxy    dyz    dz2    dxz  x2-y2    tot
    1  0.000  0.000  0.995  0.000  0.000  0.000  0.000  0.000  0.000  0.995
    2  0.000  0.000  0.000  0.000  0.000  0.000  0.000  0.000  0.000  0.000
    3  0.000  0.000  0.000  0.000  0.000  0.000  0.000  0.000  0.000  0.000
    4  0.000  0.000  0.000  0.000  0.000  0.000  0.000  0.000  0.000  0.000
tot    0.000  0.000  0.995  0.000  0.000  0.000  0.000  0.000  0.000  0.995
 
band     4 # energy  -39.85041341 # occ.  1.00000000
 
ion      s     py     pz     px    dxy    dyz    dz2    dxz  x2-y2    tot
    1  0.000  0.000  0.000  0.000  0.000  0.000  0.000  0.000  0.000  0.000
    2  0.000  0.000  0.995  0.000  0.000  0.000  0.000  0.000  0.000  0.995
    3  0.000  0.000  0.000  0.000  0.000  0.000  0.000  0.000  0.000  0.000
    4  0.000  0.000  0.000  0.000  0.000  0.000  0.000  0.000  0.000  0.000
tot    0.000  0.000  0.995  0.000  0.000  0.000  0.000  0.000  0.000  0.995
 
band     5 # energy  -39.84495019 # occ.  1.00000000
 
ion      s     py     pz     px    dxy    dyz    dz2    dxz  x2-y2    tot
    1  0.000  0.000  0.000  0.000  0.000  0.000  0.000  0.000  0.000  0.000
    2  0.000  0.247  0.000  0.749  0.000  0.000  0.000  0.000  0.000  0.995
    3  0.000  0.000  0.000  0.000  0.000  0.000  0.000  0.000  0.000  0.000
    4  0.000  0.000  0.000  0.000  0.000  0.000  0.000  0.000  0.000  0.000
tot    0.000  0.247  0.000  0.749  0.000  0.000  0.000  0.000  0.000  0.995
 
band     6 # energy  -39.84394528 # occ.  1.00000000
 
ion      s     py     pz     px    dxy    dyz    dz2    dxz  x2-y2    tot
    1  0.000  0.000  0.000  0.000  0.000  0.000  0.000  0.000  0.000  0.000
    2  0.000  0.749  0.000  0.247  0.000  0.000  0.000  0.000  0.000  0.995
    3  0.000  0.000  0.000  0.000  0.000  0.000  0.000  0.000  0.000  0.000
    4  0.000  0.000  0.000  0.000  0.000  0.000  0.000  0.000  0.000  0.000
tot    0.000  0.749  0.000  0.247  0.000  0.000  0.000  0.000  0.000  0.996
 
band     7 # energy   -4.75538442 # occ.  1.00000000
 
ion      s     py     pz     px    dxy    dyz    dz2    dxz  x2-y2    tot
    1  0.005  0.000  0.000  0.000  0.003  0.002  0.000  0.006  0.001  0.018
    2  0.001  0.001  0.001  0.004  0.000  0.000  0.000  0.000  0.000  0.007
    3  0.326  0.000  0.000  0.000  0.000  0.000  0.000  0.000  0.000  0.326
    4  0.326  0.000  0.000  0.000  0.000  0.000  0.000  0.000  0.000  0.326
tot    0.657  0.001  0.001  0.004  0.003  0.002  0.000  0.007  0.001  0.678
 
band     8 # energy   -4.73469502 # occ.  1.00000000
 
ion      s     py     pz     px    dxy    dyz    dz2    dxz  x2-y2    tot
    1  0.001  0.001  0.001  0.004  0.000  0.000  0.000  0.000  0.000  0.009
    2  0.004  0.000  0.000  0.000  0.002  0.001  0.000  0.004  0.001  0.012
    3  0.328  0.000  0.000  0.000  0.000  0.000  0.000  0.000  0.000  0.328
    4  0.328  0.000  0.000  0.000  0.000  0.000  0.000  0.000  0.000  0.328
tot    0.661  0.002  0.002  0.005  0.002  0.001  0.000  0.004  0.001  0.677
 
band     9 # energy    1.01451222 # occ.  1.00000000
 
ion      s     py     pz     px    dxy    dyz    dz2    dxz  x2-y2    tot
    1  0.082  0.000  0.000  0.000  0.030  0.003  0.007  0.010  0.010  0.143
    2  0.000  0.002  0.008  0.006  0.002  0.001  0.000  0.002  0.001  0.021
    3  0.004  0.025  0.022  0.074  0.000  0.000  0.000  0.000  0.000  0.125
    4  0.004  0.025  0.022  0.074  0.000  0.000  0.000  0.000  0.000  0.125
tot    0.091  0.051  0.052  0.154  0.032  0.004  0.007  0.013  0.011  0.414
 
band    10 # energy    1.24358817 # occ.  1.00000000
 
ion      s     py     pz     px    dxy    dyz    dz2    dxz  x2-y2    tot
    1  0.001  0.003  0.012  0.009  0.012  0.004  0.000  0.012  0.004  0.057
    2  0.061  0.000  0.000  0.000  0.006  0.000  0.001  0.001  0.002  0.072
    3  0.003  0.027  0.026  0.080  0.000  0.000  0.000  0.000  0.000  0.136
    4  0.003  0.027  0.026  0.080  0.000  0.000  0.000  0.000  0.000  0.136
tot    0.067  0.056  0.064  0.169  0.018  0.004  0.001  0.013  0.006  0.400
 
band    11 # energy    2.64696202 # occ.  1.00000000
 
ion      s     py     pz     px    dxy    dyz    dz2    dxz  x2-y2    tot
    1  0.000  0.000  0.000  0.000  0.014  0.428  0.000  0.143  0.043  0.629
    2  0.000  0.004  0.000  0.001  0.000  0.000  0.000  0.000  0.000  0.006
    3  0.000  0.050  0.000  0.017  0.000  0.000  0.000  0.000  0.000  0.068
    4  0.000  0.050  0.000  0.017  0.000  0.000  0.000  0.000  0.000  0.068
tot    0.000  0.104  0.000  0.035  0.015  0.428  0.000  0.143  0.044  0.769
 
band    12 # energy    2.65640858 # occ.  1.00000000
 
ion      s     py     pz     px    dxy    dyz    dz2    dxz  x2-y2    tot
    1  0.002  0.001  0.001  0.002  0.146  0.035  0.219  0.106  0.049  0.560
    2  0.000  0.001  0.006  0.003  0.001  0.000  0.001  0.000  0.000  0.012
    3  0.001  0.003  0.058  0.010  0.001  0.000  0.000  0.000  0.000  0.072
    4  0.001  0.003  0.058  0.010  0.001  0.000  0.000  0.000  0.000  0.072
tot    0.003  0.008  0.122  0.024  0.148  0.035  0.220  0.106  0.049  0.716
 
band    13 # energy    3.25189395 # occ.  1.00000000
 
ion      s     py     pz     px    dxy    dyz    dz2    dxz  x2-y2    tot
    1  0.000  0.000  0.001  0.000  0.034  0.119  0.287  0.356  0.011  0.807
    2  0.000  0.001  0.001  0.002  0.000  0.000  0.001  0.001  0.000  0.006
    3  0.001  0.001  0.014  0.002  0.000  0.000  0.001  0.000  0.000  0.019
    4  0.001  0.001  0.014  0.002  0.000  0.000  0.001  0.000  0.000  0.019
tot    0.003  0.002  0.029  0.006  0.034  0.119  0.289  0.357  0.011  0.852
 
band    14 # energy    3.41066654 # occ.  1.00000000
 
ion      s     py     pz     px    dxy    dyz    dz2    dxz  x2-y2    tot
    1  0.000  0.002  0.000  0.001  0.190  0.057  0.000  0.019  0.569  0.837
    2  0.000  0.000  0.000  0.000  0.000  0.006  0.000  0.002  0.001  0.009
    3  0.000  0.013  0.000  0.004  0.000  0.000  0.000  0.000  0.000  0.018
    4  0.000  0.013  0.000  0.004  0.000  0.000  0.000  0.000  0.000  0.018
tot    0.000  0.029  0.000  0.010  0.190  0.063  0.000  0.021  0.569  0.882
 
band    15 # energy    3.48425680 # occ.  1.00000000
 
ion      s     py     pz     px    dxy    dyz    dz2    dxz  x2-y2    tot
    1  0.017  0.001  0.006  0.002  0.269  0.013  0.175  0.039  0.090  0.610
    2  0.004  0.000  0.000  0.000  0.008  0.005  0.006  0.016  0.003  0.042
    3  0.002  0.004  0.039  0.013  0.001  0.000  0.000  0.000  0.000  0.059
    4  0.002  0.004  0.039  0.013  0.001  0.000  0.000  0.000  0.000  0.059
tot    0.023  0.009  0.084  0.028  0.279  0.018  0.181  0.055  0.093  0.771
 
band    16 # energy    3.90973044 # occ.  1.00000000
 
ion      s     py     pz     px    dxy    dyz    dz2    dxz  x2-y2    tot
    1  0.001  0.003  0.010  0.010  0.093  0.000  0.169  0.001  0.031  0.318
    2  0.001  0.001  0.001  0.002  0.023  0.008  0.017  0.025  0.008  0.085
    3  0.001  0.005  0.100  0.016  0.001  0.000  0.000  0.000  0.000  0.123
    4  0.001  0.005  0.100  0.016  0.001  0.000  0.000  0.000  0.000  0.123
tot    0.004  0.014  0.212  0.042  0.117  0.009  0.187  0.026  0.039  0.649
 
band    17 # energy    3.98534492 # occ.  1.00000000
 
ion      s     py     pz     px    dxy    dyz    dz2    dxz  x2-y2    tot
    1  0.000  0.020  0.000  0.007  0.021  0.006  0.000  0.002  0.062  0.117
    2  0.000  0.000  0.000  0.000  0.004  0.086  0.000  0.029  0.011  0.130
    3  0.000  0.125  0.000  0.042  0.000  0.000  0.000  0.000  0.000  0.167
    4  0.000  0.125  0.000  0.042  0.000  0.000  0.000  0.000  0.000  0.167
tot    0.000  0.270  0.000  0.090  0.024  0.092  0.000  0.031  0.073  0.581
 
band    18 # energy    5.44551814 # occ.  1.00000000
 
ion      s     py     pz     px    dxy    dyz    dz2    dxz  x2-y2    tot
    1  0.000  0.000  0.000  0.000  0.006  0.201  0.000  0.067  0.018  0.293
    2  0.000  0.022  0.000  0.007  0.003  0.000  0.000  0.000  0.008  0.040
    3  0.000  0.114  0.000  0.038  0.000  0.002  0.000  0.001  0.000  0.156
    4  0.000  0.114  0.000  0.038  0.000  0.002  0.000  0.001  0.000  0.156
tot    0.000  0.251  0.000  0.084  0.009  0.207  0.000  0.069  0.026  0.645
 
band    19 # energy    5.49493179 # occ.  1.00000000
 
ion      s     py     pz     px    dxy    dyz    dz2    dxz  x2-y2    tot
    1  0.004  0.001  0.001  0.003  0.084  0.052  0.045  0.156  0.028  0.373
    2  0.009  0.002  0.007  0.007  0.000  0.001  0.014  0.004  0.000  0.044
    3  0.017  0.005  0.101  0.014  0.000  0.000  0.000  0.001  0.000  0.140
    4  0.017  0.005  0.101  0.014  0.000  0.000  0.000  0.001  0.000  0.140
tot    0.047  0.013  0.211  0.039  0.084  0.054  0.060  0.162  0.028  0.697
 
band    20 # energy    6.57908430 # occ.  0.00108828
 
ion      s     py     pz     px    dxy    dyz    dz2    dxz  x2-y2    tot
    1  0.007  0.000  0.008  0.001  0.004  0.001  0.000  0.003  0.001  0.027
    2  0.003  0.000  0.000  0.001  0.149  0.058  0.191  0.173  0.050  0.625
    3  0.003  0.000  0.007  0.000  0.004  0.001  0.003  0.002  0.001  0.020
    4  0.003  0.000  0.007  0.000  0.004  0.001  0.003  0.002  0.001  0.020
tot    0.016  0.001  0.021  0.002  0.160  0.060  0.197  0.179  0.053  0.690
 
band    21 # energy    7.41131078 # occ.  0.00000000
 
ion      s     py     pz     px    dxy    dyz    dz2    dxz  x2-y2    tot
    1  0.000  0.003  0.000  0.001  0.000  0.002  0.000  0.001  0.000  0.008
    2  0.000  0.001  0.000  0.000  0.213  0.000  0.000  0.000  0.639  0.852
    3  0.000  0.004  0.000  0.001  0.000  0.002  0.000  0.001  0.001  0.008
    4  0.000  0.004  0.000  0.001  0.000  0.002  0.000  0.001  0.001  0.008
tot    0.000  0.012  0.000  0.004  0.213  0.006  0.000  0.002  0.640  0.877
 
band    22 # energy    7.42062853 # occ.  0.00000000
 
ion      s     py     pz     px    dxy    dyz    dz2    dxz  x2-y2    tot
    1  0.022  0.000  0.001  0.000  0.001  0.000  0.002  0.001  0.000  0.027
    2  0.008  0.000  0.001  0.000  0.269  0.001  0.401  0.004  0.090  0.774
    3  0.003  0.001  0.006  0.004  0.000  0.001  0.000  0.002  0.000  0.018
    4  0.003  0.001  0.006  0.004  0.000  0.001  0.000  0.002  0.000  0.018
tot    0.037  0.003  0.014  0.009  0.271  0.003  0.404  0.008  0.090  0.838
 
band    23 # energy    7.74716068 # occ.  0.00000000
 
ion      s     py     pz     px    dxy    dyz    dz2    dxz  x2-y2    tot
    1  0.000  0.017  0.000  0.006  0.000  0.000  0.000  0.000  0.001  0.024
    2  0.000  0.000  0.000  0.000  0.002  0.555  0.000  0.185  0.005  0.746
    3  0.000  0.020  0.000  0.007  0.000  0.005  0.000  0.002  0.000  0.033
    4  0.000  0.020  0.000  0.007  0.000  0.005  0.000  0.002  0.000  0.033
tot    0.000  0.058  0.000  0.019  0.002  0.564  0.000  0.188  0.007  0.838
 
band    24 # energy    7.82529221 # occ.  0.00000000
 
ion      s     py     pz     px    dxy    dyz    dz2    dxz  x2-y2    tot
    1  0.088  0.000  0.000  0.001  0.001  0.000  0.002  0.000  0.000  0.094
    2  0.015  0.002  0.002  0.007  0.004  0.090  0.130  0.269  0.001  0.521
    3  0.022  0.003  0.003  0.009  0.002  0.002  0.000  0.006  0.001  0.048
    4  0.022  0.003  0.003  0.009  0.002  0.002  0.000  0.006  0.001  0.048
tot    0.147  0.009  0.009  0.027  0.009  0.094  0.132  0.282  0.003  0.711
 

 k-point     5 :   -0.39473684 0.00000000 0.50000000     weight = 0.02500000

band     1 # energy  -44.23210833 # occ.  1.00000000
 
ion      s     py     pz     px    dxy    dyz    dz2    dxz  x2-y2    tot
    1  0.000  0.246  0.000  0.749  0.000  0.000  0.000  0.000  0.000  0.995
    2  0.000  0.000  0.000  0.000  0.000  0.000  0.000  0.000  0.000  0.000
    3  0.000  0.000  0.000  0.000  0.000  0.000  0.000  0.000  0.000  0.000
    4  0.000  0.000  0.000  0.000  0.000  0.000  0.000  0.000  0.000  0.000
tot    0.000  0.246  0.000  0.749  0.000  0.000  0.000  0.000  0.000  0.995
 
band     2 # energy  -44.23147357 # occ.  1.00000000
 
ion      s     py     pz     px    dxy    dyz    dz2    dxz  x2-y2    tot
    1  0.000  0.749  0.000  0.246  0.000  0.000  0.000  0.000  0.000  0.995
    2  0.000  0.000  0.000  0.000  0.000  0.000  0.000  0.000  0.000  0.000
    3  0.000  0.000  0.000  0.000  0.000  0.000  0.000  0.000  0.000  0.000
    4  0.000  0.000  0.000  0.000  0.000  0.000  0.000  0.000  0.000  0.000
tot    0.000  0.749  0.000  0.246  0.000  0.000  0.000  0.000  0.000  0.995
 
band     3 # energy  -44.22816297 # occ.  1.00000000
 
ion      s     py     pz     px    dxy    dyz    dz2    dxz  x2-y2    tot
    1  0.000  0.000  0.995  0.000  0.000  0.000  0.000  0.000  0.000  0.995
    2  0.000  0.000  0.000  0.000  0.000  0.000  0.000  0.000  0.000  0.000
    3  0.000  0.000  0.000  0.000  0.000  0.000  0.000  0.000  0.000  0.000
    4  0.000  0.000  0.000  0.000  0.000  0.000  0.000  0.000  0.000  0.000
tot    0.000  0.000  0.995  0.000  0.000  0.000  0.000  0.000  0.000  0.995
 
band     4 # energy  -39.85040967 # occ.  1.00000000
 
ion      s     py     pz     px    dxy    dyz    dz2    dxz  x2-y2    tot
    1  0.000  0.000  0.000  0.000  0.000  0.000  0.000  0.000  0.000  0.000
    2  0.000  0.000  0.995  0.000  0.000  0.000  0.000  0.000  0.000  0.995
    3  0.000  0.000  0.000  0.000  0.000  0.000  0.000  0.000  0.000  0.000
    4  0.000  0.000  0.000  0.000  0.000  0.000  0.000  0.000  0.000  0.000
tot    0.000  0.000  0.995  0.000  0.000  0.000  0.000  0.000  0.000  0.995
 
band     5 # energy  -39.84487761 # occ.  1.00000000
 
ion      s     py     pz     px    dxy    dyz    dz2    dxz  x2-y2    tot
    1  0.000  0.000  0.000  0.000  0.000  0.000  0.000  0.000  0.000  0.000
    2  0.000  0.246  0.000  0.749  0.000  0.000  0.000  0.000  0.000  0.995
    3  0.000  0.000  0.000  0.000  0.000  0.000  0.000  0.000  0.000  0.000
    4  0.000  0.000  0.000  0.000  0.000  0.000  0.000  0.000  0.000  0.000
tot    0.000  0.246  0.000  0.749  0.000  0.000  0.000  0.000  0.000  0.995
 
band     6 # energy  -39.84392642 # occ.  1.00000000
 
ion      s     py     pz     px    dxy    dyz    dz2    dxz  x2-y2    tot
    1  0.000  0.000  0.000  0.000  0.000  0.000  0.000  0.000  0.000  0.000
    2  0.000  0.749  0.000  0.246  0.000  0.000  0.000  0.000  0.000  0.995
    3  0.000  0.000  0.000  0.000  0.000  0.000  0.000  0.000  0.000  0.000
    4  0.000  0.000  0.000  0.000  0.000  0.000  0.000  0.000  0.000  0.000
tot    0.000  0.749  0.000  0.246  0.000  0.000  0.000  0.000  0.000  0.996
 
band     7 # energy   -4.79665286 # occ.  1.00000000
 
ion      s     py     pz     px    dxy    dyz    dz2    dxz  x2-y2    tot
    1  0.006  0.000  0.000  0.001  0.003  0.002  0.000  0.005  0.001  0.018
    2  0.001  0.001  0.001  0.003  0.000  0.000  0.000  0.001  0.000  0.007
    3  0.323  0.000  0.000  0.000  0.000  0.000  0.000  0.000  0.000  0.324
    4  0.323  0.000  0.000  0.000  0.000  0.000  0.000  0.000  0.000  0.324
tot    0.654  0.001  0.002  0.004  0.003  0.002  0.000  0.006  0.001  0.673
 
band     8 # energy   -4.77819238 # occ.  1.00000000
 
ion      s     py     pz     px    dxy    dyz    dz2    dxz  x2-y2    tot
    1  0.002  0.001  0.001  0.004  0.000  0.000  0.000  0.001  0.000  0.010
    2  0.005  0.000  0.000  0.001  0.002  0.001  0.000  0.003  0.001  0.012
    3  0.325  0.000  0.000  0.000  0.000  0.000  0.000  0.000  0.000  0.325
    4  0.325  0.000  0.000  0.000  0.000  0.000  0.000  0.000  0.000  0.325
tot    0.656  0.002  0.002  0.005  0.002  0.001  0.000  0.004  0.001  0.673
 
band     9 # energy    1.11273963 # occ.  1.00000000
 
ion      s     py     pz     px    dxy    dyz    dz2    dxz  x2-y2    tot
    1  0.080  0.000  0.000  0.000  0.034  0.003  0.006  0.009  0.011  0.144
    2  0.001  0.002  0.007  0.006  0.003  0.001  0.000  0.003  0.001  0.023
    3  0.007  0.024  0.024  0.072  0.000  0.000  0.000  0.000  0.000  0.128
    4  0.007  0.024  0.024  0.072  0.000  0.000  0.000  0.000  0.000  0.128
tot    0.094  0.050  0.056  0.151  0.037  0.004  0.006  0.013  0.012  0.423
 
band    10 # energy    1.30867816 # occ.  1.00000000
 
ion      s     py     pz     px    dxy    dyz    dz2    dxz  x2-y2    tot
    1  0.002  0.003  0.010  0.008  0.020  0.007  0.000  0.021  0.007  0.079
    2  0.058  0.000  0.000  0.000  0.006  0.000  0.001  0.001  0.002  0.069
    3  0.004  0.026  0.028  0.077  0.000  0.000  0.000  0.000  0.000  0.135
    4  0.004  0.026  0.028  0.077  0.000  0.000  0.000  0.000  0.000  0.135
tot    0.069  0.054  0.067  0.162  0.027  0.007  0.001  0.022  0.009  0.419
 
band    11 # energy    2.65808425 # occ.  1.00000000
 
ion      s     py     pz     px    dxy    dyz    dz2    dxz  x2-y2    tot
    1  0.000  0.000  0.000  0.000  0.017  0.425  0.000  0.142  0.050  0.633
    2  0.000  0.004  0.000  0.001  0.000  0.000  0.000  0.000  0.000  0.006
    3  0.000  0.049  0.000  0.016  0.000  0.000  0.000  0.000  0.000  0.067
    4  0.000  0.049  0.000  0.016  0.000  0.000  0.000  0.000  0.000  0.067
tot    0.000  0.103  0.000  0.034  0.017  0.425  0.000  0.142  0.051  0.772
 
band    12 # energy    2.68924345 # occ.  1.00000000
 
ion      s     py     pz     px    dxy    dyz    dz2    dxz  x2-y2    tot
    1  0.001  0.001  0.001  0.003  0.115  0.031  0.273  0.092  0.038  0.554
    2  0.000  0.001  0.007  0.003  0.001  0.000  0.001  0.000  0.000  0.013
    3  0.001  0.003  0.056  0.010  0.001  0.000  0.000  0.000  0.000  0.072
    4  0.001  0.003  0.056  0.010  0.001  0.000  0.000  0.000  0.000  0.072
tot    0.003  0.009  0.119  0.027  0.117  0.031  0.274  0.092  0.039  0.711
 
band    13 # energy    3.26162886 # occ.  1.00000000
 
ion      s     py     pz     px    dxy    dyz    dz2    dxz  x2-y2    tot
    1  0.000  0.000  0.002  0.000  0.031  0.122  0.253  0.365  0.010  0.784
    2  0.000  0.001  0.001  0.002  0.000  0.000  0.002  0.001  0.000  0.007
    3  0.002  0.001  0.016  0.004  0.000  0.000  0.001  0.000  0.000  0.024
    4  0.002  0.001  0.016  0.004  0.000  0.000  0.001  0.000  0.000  0.024
tot    0.004  0.003  0.035  0.010  0.032  0.122  0.257  0.366  0.011  0.840
 
band    14 # energy    3.37435819 # occ.  1.00000000
 
ion      s     py     pz     px    dxy    dyz    dz2    dxz  x2-y2    tot
    1  0.000  0.003  0.000  0.001  0.181  0.063  0.000  0.021  0.542  0.810
    2  0.000  0.000  0.000  0.000  0.000  0.007  0.000  0.002  0.001  0.011
    3  0.000  0.017  0.000  0.006  0.000  0.000  0.000  0.000  0.000  0.023
    4  0.000  0.017  0.000  0.006  0.000  0.000  0.000  0.000  0.000  0.023
tot    0.000  0.037  0.000  0.012  0.181  0.071  0.000  0.024  0.543  0.867
 
band    15 # energy    3.45102808 # occ.  1.00000000
 
ion      s     py     pz     px    dxy    dyz    dz2    dxz  x2-y2    tot
    1  0.018  0.000  0.007  0.001  0.283  0.011  0.131  0.033  0.094  0.579
    2  0.005  0.000  0.000  0.000  0.007  0.006  0.007  0.018  0.002  0.046
    3  0.002  0.006  0.039  0.017  0.001  0.000  0.000  0.000  0.000  0.065
    4  0.002  0.006  0.039  0.017  0.001  0.000  0.000  0.000  0.000  0.065
tot    0.026  0.012  0.086  0.035  0.292  0.017  0.138  0.052  0.097  0.754
 
band    16 # energy    3.96986763 # occ.  1.00000000
 
ion      s     py     pz     px    dxy    dyz    dz2    dxz  x2-y2    tot
    1  0.001  0.003  0.010  0.009  0.107  0.000  0.185  0.000  0.036  0.349
    2  0.000  0.001  0.001  0.002  0.019  0.007  0.019  0.020  0.006  0.076
    3  0.002  0.005  0.096  0.015  0.001  0.000  0.000  0.000  0.000  0.119
    4  0.002  0.005  0.096  0.015  0.001  0.000  0.000  0.000  0.000  0.119
tot    0.004  0.014  0.202  0.042  0.127  0.007  0.204  0.020  0.042  0.663
 
band    17 # energy    4.04567582 # occ.  1.00000000
 
ion      s     py     pz     px    dxy    dyz    dz2    dxz  x2-y2    tot
    1  0.000  0.019  0.000  0.006  0.026  0.009  0.000  0.003  0.078  0.141
    2  0.000  0.000  0.000  0.000  0.004  0.086  0.000  0.029  0.012  0.131
    3  0.000  0.121  0.000  0.040  0.000  0.000  0.000  0.000  0.000  0.162
    4  0.000  0.121  0.000  0.040  0.000  0.000  0.000  0.000  0.000  0.162
tot    0.000  0.262  0.000  0.087  0.030  0.095  0.000  0.032  0.091  0.597
 
band    18 # energy    5.39096372 # occ.  1.00000000
 
ion      s     py     pz     px    dxy    dyz    dz2    dxz  x2-y2    tot
    1  0.003  0.001  0.002  0.004  0.074  0.052  0.055  0.157  0.025  0.372
    2  0.014  0.002  0.007  0.005  0.000  0.002  0.017  0.005  0.000  0.051
    3  0.016  0.005  0.095  0.016  0.000  0.000  0.001  0.001  0.000  0.136
    4  0.016  0.005  0.095  0.016  0.000  0.000  0.001  0.001  0.000  0.136
tot    0.048  0.014  0.199  0.042  0.074  0.055  0.072  0.165  0.025  0.694
 
band    19 # energy    5.45130195 # occ.  1.00000000
 
ion      s     py     pz     px    dxy    dyz    dz2    dxz  x2-y2    tot
    1  0.000  0.000  0.000  0.000  0.007  0.194  0.000  0.065  0.021  0.287
    2  0.000  0.021  0.000  0.007  0.004  0.001  0.000  0.000  0.013  0.047
    3  0.000  0.114  0.000  0.038  0.000  0.002  0.000  0.001  0.000  0.155
    4  0.000  0.114  0.000  0.038  0.000  0.002  0.000  0.001  0.000  0.155
tot    0.000  0.250  0.000  0.083  0.011  0.199  0.000  0.066  0.034  0.645
 
band    20 # energy    6.59787934 # occ.  0.00016119
 
ion      s     py     pz     px    dxy    dyz    dz2    dxz  x2-y2    tot
    1  0.011  0.000  0.007  0.000  0.005  0.001  0.000  0.004  0.002  0.032
    2  0.005  0.000  0.000  0.001  0.169  0.053  0.170  0.160  0.056  0.616
    3  0.004  0.000  0.007  0.000  0.004  0.000  0.003  0.001  0.001  0.021
    4  0.004  0.000  0.007  0.000  0.004  0.000  0.003  0.001  0.001  0.021
tot    0.025  0.001  0.020  0.002  0.182  0.056  0.176  0.167  0.061  0.689
 
band    21 # energy    7.38542403 # occ.  0.00000000
 
ion      s     py     pz     px    dxy    dyz    dz2    dxz  x2-y2    tot
    1  0.034  0.000  0.001  0.000  0.001  0.000  0.003  0.001  0.000  0.041
    2  0.004  0.000  0.002  0.000  0.257  0.010  0.345  0.030  0.086  0.733
    3  0.007  0.002  0.006  0.005  0.000  0.001  0.000  0.003  0.000  0.025
    4  0.007  0.002  0.006  0.005  0.000  0.001  0.000  0.003  0.000  0.025
tot    0.052  0.003  0.016  0.010  0.258  0.012  0.349  0.037  0.086  0.824
 
band    22 # energy    7.42745803 # occ.  0.00000000
 
ion      s     py     pz     px    dxy    dyz    dz2    dxz  x2-y2    tot
    1  0.000  0.003  0.000  0.001  0.000  0.004  0.000  0.001  0.000  0.009
    2  0.000  0.001  0.000  0.000  0.211  0.000  0.000  0.000  0.633  0.845
    3  0.000  0.006  0.000  0.002  0.000  0.001  0.000  0.000  0.001  0.010
    4  0.000  0.006  0.000  0.002  0.000  0.001  0.000  0.000  0.001  0.010
tot    0.000  0.016  0.000  0.005  0.211  0.007  0.000  0.002  0.634  0.876
 
band    23 # energy    7.74930286 # occ.  0.00000000
 
ion      s     py     pz     px    dxy    dyz    dz2    dxz  x2-y2    tot
    1  0.000  0.017  0.000  0.006  0.001  0.000  0.000  0.000  0.002  0.026
    2  0.000  0.000  0.000  0.000  0.000  0.554  0.000  0.185  0.001  0.740
    3  0.000  0.021  0.000  0.007  0.000  0.005  0.000  0.002  0.000  0.035
    4  0.000  0.021  0.000  0.007  0.000  0.005  0.000  0.002  0.000  0.035
tot    0.000  0.060  0.000  0.020  0.001  0.563  0.000  0.188  0.004  0.836
 
band    24 # energy    7.79618833 # occ.  0.00000000
 
ion      s     py     pz     px    dxy    dyz    dz2    dxz  x2-y2    tot
    1  0.063  0.000  0.000  0.001  0.001  0.000  0.001  0.000  0.000  0.067
    2  0.012  0.002  0.001  0.007  0.000  0.098  0.217  0.295  0.000  0.632
    3  0.017  0.002  0.004  0.007  0.001  0.001  0.000  0.004  0.000  0.038
    4  0.017  0.002  0.004  0.007  0.001  0.001  0.000  0.004  0.000  0.038
tot    0.110  0.007  0.010  0.021  0.003  0.101  0.218  0.304  0.001  0.775
 

 k-point     6 :   -0.36842105 0.00000000 0.50000000     weight = 0.02500000

band     1 # energy  -44.23205439 # occ.  1.00000000
 
ion      s     py     pz     px    dxy    dyz    dz2    dxz  x2-y2    tot
    1  0.000  0.246  0.000  0.749  0.000  0.000  0.000  0.000  0.000  0.995
    2  0.000  0.000  0.000  0.000  0.000  0.000  0.000  0.000  0.000  0.000
    3  0.000  0.000  0.000  0.000  0.000  0.000  0.000  0.000  0.000  0.000
    4  0.000  0.000  0.000  0.000  0.000  0.000  0.000  0.000  0.000  0.000
tot    0.000  0.246  0.000  0.749  0.000  0.000  0.000  0.000  0.000  0.995
 
band     2 # energy  -44.23146036 # occ.  1.00000000
 
ion      s     py     pz     px    dxy    dyz    dz2    dxz  x2-y2    tot
    1  0.000  0.749  0.000  0.246  0.000  0.000  0.000  0.000  0.000  0.995
    2  0.000  0.000  0.000  0.000  0.000  0.000  0.000  0.000  0.000  0.000
    3  0.000  0.000  0.000  0.000  0.000  0.000  0.000  0.000  0.000  0.000
    4  0.000  0.000  0.000  0.000  0.000  0.000  0.000  0.000  0.000  0.000
tot    0.000  0.749  0.000  0.246  0.000  0.000  0.000  0.000  0.000  0.995
 
band     3 # energy  -44.22817219 # occ.  1.00000000
 
ion      s     py     pz     px    dxy    dyz    dz2    dxz  x2-y2    tot
    1  0.000  0.000  0.995  0.000  0.000  0.000  0.000  0.000  0.000  0.995
    2  0.000  0.000  0.000  0.000  0.000  0.000  0.000  0.000  0.000  0.000
    3  0.000  0.000  0.000  0.000  0.000  0.000  0.000  0.000  0.000  0.000
    4  0.000  0.000  0.000  0.000  0.000  0.000  0.000  0.000  0.000  0.000
tot    0.000  0.000  0.995  0.000  0.000  0.000  0.000  0.000  0.000  0.995
 
band     4 # energy  -39.85042419 # occ.  1.00000000
 
ion      s     py     pz     px    dxy    dyz    dz2    dxz  x2-y2    tot
    1  0.000  0.000  0.000  0.000  0.000  0.000  0.000  0.000  0.000  0.000
    2  0.000  0.000  0.995  0.000  0.000  0.000  0.000  0.000  0.000  0.995
    3  0.000  0.000  0.000  0.000  0.000  0.000  0.000  0.000  0.000  0.000
    4  0.000  0.000  0.000  0.000  0.000  0.000  0.000  0.000  0.000  0.000
tot    0.000  0.000  0.995  0.000  0.000  0.000  0.000  0.000  0.000  0.995
 
band     5 # energy  -39.84479723 # occ.  1.00000000
 
ion      s     py     pz     px    dxy    dyz    dz2    dxz  x2-y2    tot
    1  0.000  0.000  0.000  0.000  0.000  0.000  0.000  0.000  0.000  0.000
    2  0.000  0.246  0.000  0.749  0.000  0.000  0.000  0.000  0.000  0.995
    3  0.000  0.000  0.000  0.000  0.000  0.000  0.000  0.000  0.000  0.000
    4  0.000  0.000  0.000  0.000  0.000  0.000  0.000  0.000  0.000  0.000
tot    0.000  0.246  0.000  0.749  0.000  0.000  0.000  0.000  0.000  0.995
 
band     6 # energy  -39.84390688 # occ.  1.00000000
 
ion      s     py     pz     px    dxy    dyz    dz2    dxz  x2-y2    tot
    1  0.000  0.000  0.000  0.000  0.000  0.000  0.000  0.000  0.000  0.000
    2  0.000  0.749  0.000  0.246  0.000  0.000  0.000  0.000  0.000  0.995
    3  0.000  0.000  0.000  0.000  0.000  0.000  0.000  0.000  0.000  0.000
    4  0.000  0.000  0.000  0.000  0.000  0.000  0.000  0.000  0.000  0.000
tot    0.000  0.749  0.000  0.246  0.000  0.000  0.000  0.000  0.000  0.996
 
band     7 # energy   -4.84690524 # occ.  1.00000000
 
ion      s     py     pz     px    dxy    dyz    dz2    dxz  x2-y2    tot
    1  0.008  0.000  0.000  0.001  0.002  0.001  0.000  0.004  0.001  0.018
    2  0.001  0.001  0.001  0.002  0.000  0.000  0.000  0.001  0.000  0.008
    3  0.320  0.000  0.000  0.000  0.000  0.000  0.000  0.000  0.000  0.321
    4  0.320  0.000  0.000  0.000  0.000  0.000  0.000  0.000  0.000  0.321
tot    0.649  0.001  0.002  0.004  0.002  0.002  0.000  0.005  0.001  0.667
 
band     8 # energy   -4.83008029 # occ.  1.00000000
 
ion      s     py     pz     px    dxy    dyz    dz2    dxz  x2-y2    tot
    1  0.002  0.001  0.002  0.003  0.001  0.001  0.000  0.002  0.000  0.010
    2  0.006  0.000  0.000  0.001  0.001  0.001  0.000  0.002  0.000  0.013
    3  0.322  0.000  0.000  0.000  0.000  0.000  0.000  0.000  0.000  0.322
    4  0.322  0.000  0.000  0.000  0.000  0.000  0.000  0.000  0.000  0.322
tot    0.651  0.002  0.003  0.005  0.002  0.001  0.000  0.004  0.001  0.668
 
band     9 # energy    1.23228932 # occ.  1.00000000
 
ion      s     py     pz     px    dxy    dyz    dz2    dxz  x2-y2    tot
    1  0.076  0.000  0.000  0.001  0.041  0.002  0.004  0.007  0.014  0.146
    2  0.002  0.002  0.006  0.005  0.004  0.002  0.000  0.005  0.001  0.026
    3  0.010  0.023  0.027  0.070  0.000  0.000  0.000  0.000  0.000  0.131
    4  0.010  0.023  0.027  0.070  0.000  0.000  0.000  0.000  0.000  0.131
tot    0.098  0.049  0.061  0.146  0.045  0.004  0.005  0.012  0.015  0.435
 
band    10 # energy    1.38690106 # occ.  1.00000000
 
ion      s     py     pz     px    dxy    dyz    dz2    dxz  x2-y2    tot
    1  0.005  0.002  0.009  0.007  0.029  0.011  0.000  0.033  0.010  0.105
    2  0.054  0.000  0.000  0.000  0.007  0.000  0.001  0.001  0.002  0.065
    3  0.006  0.024  0.031  0.073  0.000  0.000  0.000  0.000  0.000  0.135
    4  0.006  0.024  0.031  0.073  0.000  0.000  0.000  0.000  0.000  0.135
tot    0.072  0.051  0.070  0.153  0.036  0.011  0.001  0.034  0.012  0.440
 
band    11 # energy    2.67118910 # occ.  1.00000000
 
ion      s     py     pz     px    dxy    dyz    dz2    dxz  x2-y2    tot
    1  0.000  0.000  0.000  0.000  0.020  0.419  0.000  0.140  0.060  0.639
    2  0.000  0.004  0.000  0.001  0.000  0.000  0.000  0.000  0.000  0.006
    3  0.000  0.049  0.000  0.016  0.000  0.000  0.000  0.000  0.000  0.066
    4  0.000  0.049  0.000  0.016  0.000  0.000  0.000  0.000  0.000  0.066
tot    0.000  0.101  0.000  0.034  0.020  0.420  0.000  0.140  0.061  0.776
 
band    12 # energy    2.71827885 # occ.  1.00000000
 
ion      s     py     pz     px    dxy    dyz    dz2    dxz  x2-y2    tot
    1  0.000  0.001  0.001  0.004  0.077  0.025  0.343  0.076  0.026  0.555
    2  0.000  0.001  0.008  0.002  0.002  0.000  0.001  0.000  0.001  0.013
    3  0.001  0.004  0.054  0.011  0.001  0.000  0.000  0.000  0.000  0.070
    4  0.001  0.004  0.054  0.011  0.001  0.000  0.000  0.000  0.000  0.070
tot    0.002  0.009  0.115  0.028  0.080  0.025  0.344  0.076  0.027  0.708
 
band    13 # energy    3.27860756 # occ.  1.00000000
 
ion      s     py     pz     px    dxy    dyz    dz2    dxz  x2-y2    tot
    1  0.001  0.000  0.002  0.000  0.046  0.129  0.192  0.386  0.015  0.771
    2  0.000  0.001  0.001  0.003  0.000  0.000  0.003  0.000  0.000  0.008
    3  0.002  0.001  0.018  0.004  0.000  0.000  0.001  0.000  0.000  0.027
    4  0.002  0.001  0.018  0.004  0.000  0.000  0.001  0.000  0.000  0.027
tot    0.005  0.004  0.038  0.012  0.047  0.129  0.196  0.387  0.016  0.833
 
band    14 # energy    3.33862145 # occ.  1.00000000
 
ion      s     py     pz     px    dxy    dyz    dz2    dxz  x2-y2    tot
    1  0.000  0.003  0.000  0.001  0.173  0.073  0.000  0.024  0.519  0.793
    2  0.000  0.000  0.000  0.000  0.000  0.007  0.000  0.002  0.001  0.011
    3  0.000  0.019  0.000  0.006  0.000  0.000  0.000  0.000  0.000  0.026
    4  0.000  0.019  0.000  0.006  0.000  0.000  0.000  0.000  0.000  0.026
tot    0.000  0.042  0.000  0.014  0.173  0.081  0.000  0.027  0.520  0.857
 
band    15 # energy    3.44150543 # occ.  1.00000000
 
ion      s     py     pz     px    dxy    dyz    dz2    dxz  x2-y2    tot
    1  0.018  0.000  0.009  0.001  0.285  0.005  0.105  0.015  0.095  0.533
    2  0.006  0.000  0.000  0.001  0.005  0.006  0.010  0.019  0.002  0.050
    3  0.002  0.008  0.039  0.023  0.001  0.000  0.000  0.000  0.000  0.074
    4  0.002  0.008  0.039  0.023  0.001  0.000  0.000  0.000  0.000  0.074
tot    0.028  0.016  0.088  0.048  0.293  0.011  0.115  0.034  0.098  0.730
 
band    16 # energy    4.01885109 # occ.  1.00000000
 
ion      s     py     pz     px    dxy    dyz    dz2    dxz  x2-y2    tot
    1  0.000  0.003  0.010  0.008  0.122  0.001  0.189  0.002  0.041  0.375
    2  0.000  0.001  0.001  0.003  0.015  0.005  0.021  0.015  0.005  0.067
    3  0.003  0.005  0.092  0.015  0.001  0.000  0.000  0.000  0.000  0.115
    4  0.003  0.005  0.092  0.015  0.001  0.000  0.000  0.000  0.000  0.115
tot    0.006  0.014  0.195  0.041  0.138  0.006  0.210  0.017  0.046  0.673
 
band    17 # energy    4.11103174 # occ.  1.00000000
 
ion      s     py     pz     px    dxy    dyz    dz2    dxz  x2-y2    tot
    1  0.000  0.018  0.000  0.006  0.029  0.012  0.000  0.004  0.086  0.155
    2  0.000  0.000  0.000  0.000  0.005  0.087  0.000  0.029  0.014  0.135
    3  0.000  0.119  0.000  0.040  0.000  0.000  0.000  0.000  0.001  0.160
    4  0.000  0.119  0.000  0.040  0.000  0.000  0.000  0.000  0.001  0.160
tot    0.000  0.257  0.000  0.086  0.034  0.099  0.000  0.033  0.102  0.610
 
band    18 # energy    5.28401505 # occ.  1.00000000
 
ion      s     py     pz     px    dxy    dyz    dz2    dxz  x2-y2    tot
    1  0.001  0.002  0.002  0.005  0.062  0.053  0.068  0.158  0.021  0.372
    2  0.017  0.001  0.007  0.003  0.000  0.002  0.016  0.006  0.000  0.053
    3  0.015  0.006  0.089  0.019  0.000  0.000  0.001  0.001  0.000  0.133
    4  0.015  0.006  0.089  0.019  0.000  0.000  0.001  0.001  0.000  0.133
tot    0.049  0.016  0.188  0.047  0.062  0.056  0.086  0.167  0.021  0.691
 
band    19 # energy    5.46098839 # occ.  1.00000000
 
ion      s     py     pz     px    dxy    dyz    dz2    dxz  x2-y2    tot
    1  0.000  0.001  0.000  0.000  0.008  0.184  0.000  0.061  0.025  0.279
    2  0.000  0.020  0.000  0.007  0.006  0.002  0.000  0.001  0.019  0.055
    3  0.000  0.114  0.000  0.038  0.000  0.002  0.000  0.001  0.000  0.155
    4  0.000  0.114  0.000  0.038  0.000  0.002  0.000  0.001  0.000  0.155
tot    0.000  0.248  0.000  0.083  0.015  0.191  0.000  0.064  0.044  0.644
 
band    20 # energy    6.61637737 # occ.  0.00001896
 
ion      s     py     pz     px    dxy    dyz    dz2    dxz  x2-y2    tot
    1  0.016  0.000  0.006  0.000  0.006  0.001  0.000  0.004  0.002  0.035
    2  0.008  0.000  0.000  0.001  0.192  0.048  0.151  0.145  0.064  0.610
    3  0.005  0.000  0.006  0.000  0.004  0.000  0.003  0.001  0.001  0.021
    4  0.005  0.000  0.006  0.000  0.004  0.000  0.003  0.001  0.001  0.021
tot    0.034  0.001  0.019  0.002  0.206  0.051  0.157  0.152  0.069  0.688
 
band    21 # energy    7.34198915 # occ.  0.00000000
 
ion      s     py     pz     px    dxy    dyz    dz2    dxz  x2-y2    tot
    1  0.042  0.000  0.001  0.000  0.001  0.000  0.003  0.000  0.000  0.049
    2  0.001  0.000  0.002  0.000  0.237  0.025  0.291  0.076  0.079  0.713
    3  0.010  0.002  0.006  0.005  0.000  0.001  0.000  0.003  0.000  0.028
    4  0.010  0.002  0.006  0.005  0.000  0.001  0.000  0.003  0.000  0.028
tot    0.064  0.003  0.014  0.010  0.239  0.028  0.296  0.084  0.080  0.817
 
band    22 # energy    7.44596315 # occ.  0.00000000
 
ion      s     py     pz     px    dxy    dyz    dz2    dxz  x2-y2    tot
    1  0.000  0.002  0.000  0.001  0.000  0.006  0.000  0.002  0.000  0.011
    2  0.000  0.002  0.000  0.001  0.207  0.004  0.000  0.001  0.622  0.837
    3  0.000  0.008  0.000  0.003  0.000  0.001  0.000  0.000  0.001  0.013
    4  0.000  0.008  0.000  0.003  0.000  0.001  0.000  0.000  0.001  0.013
tot    0.000  0.020  0.000  0.007  0.208  0.013  0.000  0.004  0.623  0.875
 
band    23 # energy    7.75298912 # occ.  0.00000000
 
ion      s     py     pz     px    dxy    dyz    dz2    dxz  x2-y2    tot
    1  0.000  0.017  0.000  0.006  0.001  0.000  0.000  0.000  0.003  0.027
    2  0.000  0.000  0.000  0.000  0.000  0.549  0.000  0.183  0.000  0.732
    3  0.000  0.023  0.000  0.008  0.000  0.005  0.000  0.002  0.001  0.037
    4  0.000  0.023  0.000  0.008  0.000  0.005  0.000  0.002  0.001  0.037
tot    0.000  0.063  0.000  0.021  0.001  0.558  0.000  0.186  0.004  0.834
 
band    24 # energy    7.77992281 # occ.  0.00000000
 
ion      s     py     pz     px    dxy    dyz    dz2    dxz  x2-y2    tot
    1  0.043  0.000  0.000  0.000  0.001  0.000  0.001  0.000  0.000  0.045
    2  0.008  0.002  0.001  0.006  0.002  0.099  0.298  0.296  0.001  0.712
    3  0.013  0.002  0.007  0.006  0.001  0.001  0.000  0.003  0.000  0.033
    4  0.013  0.002  0.007  0.006  0.001  0.001  0.000  0.003  0.000  0.033
tot    0.077  0.006  0.014  0.019  0.004  0.101  0.298  0.302  0.001  0.822
 

 k-point     7 :   -0.34210526 0.00000000 0.50000000     weight = 0.02500000

band     1 # energy  -44.23198977 # occ.  1.00000000
 
ion      s     py     pz     px    dxy    dyz    dz2    dxz  x2-y2    tot
    1  0.000  0.246  0.000  0.749  0.000  0.000  0.000  0.000  0.000  0.995
    2  0.000  0.000  0.000  0.000  0.000  0.000  0.000  0.000  0.000  0.000
    3  0.000  0.000  0.000  0.000  0.000  0.000  0.000  0.000  0.000  0.000
    4  0.000  0.000  0.000  0.000  0.000  0.000  0.000  0.000  0.000  0.000
tot    0.000  0.246  0.000  0.749  0.000  0.000  0.000  0.000  0.000  0.995
 
band     2 # energy  -44.23144784 # occ.  1.00000000
 
ion      s     py     pz     px    dxy    dyz    dz2    dxz  x2-y2    tot
    1  0.000  0.749  0.000  0.246  0.000  0.000  0.000  0.000  0.000  0.995
    2  0.000  0.000  0.000  0.000  0.000  0.000  0.000  0.000  0.000  0.000
    3  0.000  0.000  0.000  0.000  0.000  0.000  0.000  0.000  0.000  0.000
    4  0.000  0.000  0.000  0.000  0.000  0.000  0.000  0.000  0.000  0.000
tot    0.000  0.749  0.000  0.246  0.000  0.000  0.000  0.000  0.000  0.995
 
band     3 # energy  -44.22818734 # occ.  1.00000000
 
ion      s     py     pz     px    dxy    dyz    dz2    dxz  x2-y2    tot
    1  0.000  0.000  0.995  0.000  0.000  0.000  0.000  0.000  0.000  0.995
    2  0.000  0.000  0.000  0.000  0.000  0.000  0.000  0.000  0.000  0.000
    3  0.000  0.000  0.000  0.000  0.000  0.000  0.000  0.000  0.000  0.000
    4  0.000  0.000  0.000  0.000  0.000  0.000  0.000  0.000  0.000  0.000
tot    0.000  0.000  0.995  0.000  0.000  0.000  0.000  0.000  0.000  0.995
 
band     4 # energy  -39.85044606 # occ.  1.00000000
 
ion      s     py     pz     px    dxy    dyz    dz2    dxz  x2-y2    tot
    1  0.000  0.000  0.000  0.000  0.000  0.000  0.000  0.000  0.000  0.000
    2  0.000  0.000  0.995  0.000  0.000  0.000  0.000  0.000  0.000  0.995
    3  0.000  0.000  0.000  0.000  0.000  0.000  0.000  0.000  0.000  0.000
    4  0.000  0.000  0.000  0.000  0.000  0.000  0.000  0.000  0.000  0.000
tot    0.000  0.000  0.995  0.000  0.000  0.000  0.000  0.000  0.000  0.995
 
band     5 # energy  -39.84470404 # occ.  1.00000000
 
ion      s     py     pz     px    dxy    dyz    dz2    dxz  x2-y2    tot
    1  0.000  0.000  0.000  0.000  0.000  0.000  0.000  0.000  0.000  0.000
    2  0.000  0.246  0.000  0.749  0.000  0.000  0.000  0.000  0.000  0.995
    3  0.000  0.000  0.000  0.000  0.000  0.000  0.000  0.000  0.000  0.000
    4  0.000  0.000  0.000  0.000  0.000  0.000  0.000  0.000  0.000  0.000
tot    0.000  0.246  0.000  0.749  0.000  0.000  0.000  0.000  0.000  0.995
 
band     6 # energy  -39.84388764 # occ.  1.00000000
 
ion      s     py     pz     px    dxy    dyz    dz2    dxz  x2-y2    tot
    1  0.000  0.000  0.000  0.000  0.000  0.000  0.000  0.000  0.000  0.000
    2  0.000  0.749  0.000  0.246  0.000  0.000  0.000  0.000  0.000  0.995
    3  0.000  0.000  0.000  0.000  0.000  0.000  0.000  0.000  0.000  0.000
    4  0.000  0.000  0.000  0.000  0.000  0.000  0.000  0.000  0.000  0.000
tot    0.000  0.749  0.000  0.246  0.000  0.000  0.000  0.000  0.000  0.996
 
band     7 # energy   -4.90440115 # occ.  1.00000000
 
ion      s     py     pz     px    dxy    dyz    dz2    dxz  x2-y2    tot
    1  0.011  0.001  0.000  0.002  0.001  0.001  0.000  0.003  0.000  0.019
    2  0.001  0.001  0.002  0.002  0.001  0.000  0.000  0.001  0.000  0.007
    3  0.316  0.000  0.000  0.000  0.000  0.000  0.000  0.000  0.000  0.317
    4  0.316  0.000  0.000  0.000  0.000  0.000  0.000  0.000  0.000  0.317
tot    0.644  0.001  0.003  0.004  0.002  0.001  0.000  0.004  0.001  0.661
 
band     8 # energy   -4.88787913 # occ.  1.00000000
 
ion      s     py     pz     px    dxy    dyz    dz2    dxz  x2-y2    tot
    1  0.001  0.001  0.002  0.002  0.001  0.001  0.000  0.002  0.000  0.010
    2  0.008  0.000  0.000  0.001  0.001  0.001  0.000  0.002  0.000  0.014
    3  0.318  0.000  0.000  0.000  0.000  0.000  0.000  0.000  0.000  0.319
    4  0.318  0.000  0.000  0.000  0.000  0.000  0.000  0.000  0.000  0.319
tot    0.646  0.001  0.003  0.004  0.002  0.001  0.000  0.004  0.001  0.662
 
band     9 # energy    1.36728560 # occ.  1.00000000
 
ion      s     py     pz     px    dxy    dyz    dz2    dxz  x2-y2    tot
    1  0.069  0.000  0.000  0.001  0.056  0.001  0.003  0.003  0.019  0.152
    2  0.005  0.002  0.005  0.005  0.004  0.002  0.000  0.007  0.001  0.031
    3  0.012  0.022  0.032  0.067  0.000  0.000  0.000  0.000  0.000  0.134
    4  0.012  0.022  0.032  0.067  0.000  0.000  0.000  0.000  0.000  0.134
tot    0.099  0.046  0.069  0.139  0.060  0.003  0.003  0.010  0.020  0.450
 
band    10 # energy    1.47639259 # occ.  1.00000000
 
ion      s     py     pz     px    dxy    dyz    dz2    dxz  x2-y2    tot
    1  0.011  0.002  0.007  0.005  0.031  0.016  0.000  0.049  0.010  0.132
    2  0.048  0.000  0.000  0.001  0.008  0.000  0.000  0.000  0.003  0.061
    3  0.009  0.023  0.033  0.069  0.000  0.000  0.000  0.000  0.000  0.135
    4  0.009  0.023  0.033  0.069  0.000  0.000  0.000  0.000  0.000  0.135
tot    0.077  0.048  0.074  0.144  0.040  0.016  0.001  0.049  0.013  0.462
 
band    11 # energy    2.68536674 # occ.  1.00000000
 
ion      s     py     pz     px    dxy    dyz    dz2    dxz  x2-y2    tot
    1  0.000  0.000  0.000  0.000  0.024  0.411  0.000  0.137  0.073  0.645
    2  0.000  0.003  0.000  0.001  0.000  0.000  0.000  0.000  0.001  0.005
    3  0.000  0.048  0.000  0.016  0.000  0.000  0.000  0.000  0.000  0.065
    4  0.000  0.048  0.000  0.016  0.000  0.000  0.000  0.000  0.000  0.065
tot    0.000  0.099  0.000  0.033  0.025  0.412  0.000  0.137  0.074  0.780
 
band    12 # energy    2.73564409 # occ.  1.00000000
 
ion      s     py     pz     px    dxy    dyz    dz2    dxz  x2-y2    tot
    1  0.000  0.002  0.000  0.005  0.042  0.021  0.415  0.062  0.014  0.562
    2  0.000  0.000  0.008  0.001  0.002  0.000  0.000  0.000  0.001  0.013
    3  0.001  0.004  0.050  0.011  0.001  0.000  0.000  0.000  0.000  0.067
    4  0.001  0.004  0.050  0.011  0.001  0.000  0.000  0.000  0.000  0.067
tot    0.002  0.009  0.110  0.028  0.045  0.021  0.416  0.062  0.015  0.708
 
band    13 # energy    3.29752420 # occ.  1.00000000
 
ion      s     py     pz     px    dxy    dyz    dz2    dxz  x2-y2    tot
    1  0.003  0.000  0.001  0.000  0.094  0.132  0.123  0.397  0.031  0.784
    2  0.000  0.001  0.000  0.002  0.002  0.000  0.002  0.000  0.001  0.007
    3  0.002  0.001  0.016  0.003  0.000  0.000  0.001  0.000  0.000  0.024
    4  0.002  0.001  0.016  0.003  0.000  0.000  0.001  0.000  0.000  0.024
tot    0.007  0.003  0.034  0.008  0.097  0.133  0.127  0.398  0.032  0.839
 
band    14 # energy    3.30591334 # occ.  1.00000000
 
ion      s     py     pz     px    dxy    dyz    dz2    dxz  x2-y2    tot
    1  0.000  0.003  0.000  0.001  0.166  0.088  0.000  0.029  0.497  0.784
    2  0.000  0.000  0.000  0.000  0.000  0.007  0.000  0.002  0.001  0.012
    3  0.000  0.020  0.000  0.007  0.000  0.000  0.000  0.000  0.000  0.027
    4  0.000  0.020  0.000  0.007  0.000  0.000  0.000  0.000  0.000  0.027
tot    0.000  0.044  0.000  0.015  0.166  0.096  0.000  0.032  0.499  0.851
 
band    15 # energy    3.47100999 # occ.  1.00000000
 
ion      s     py     pz     px    dxy    dyz    dz2    dxz  x2-y2    tot
    1  0.015  0.000  0.013  0.000  0.246  0.000  0.090  0.000  0.082  0.447
    2  0.006  0.001  0.000  0.003  0.003  0.007  0.015  0.020  0.001  0.056
    3  0.003  0.011  0.042  0.034  0.001  0.000  0.000  0.000  0.000  0.091
    4  0.003  0.011  0.042  0.034  0.001  0.000  0.000  0.000  0.000  0.091
tot    0.027  0.024  0.097  0.071  0.251  0.007  0.105  0.021  0.084  0.686
 
band    16 # energy    4.05077071 # occ.  1.00000000
 
ion      s     py     pz     px    dxy    dyz    dz2    dxz  x2-y2    tot
    1  0.000  0.002  0.009  0.007  0.141  0.003  0.185  0.010  0.047  0.405
    2  0.002  0.001  0.001  0.004  0.012  0.003  0.022  0.010  0.004  0.059
    3  0.004  0.004  0.087  0.013  0.000  0.000  0.000  0.000  0.000  0.110
    4  0.004  0.004  0.087  0.013  0.000  0.000  0.000  0.000  0.000  0.110
tot    0.011  0.012  0.185  0.037  0.154  0.007  0.208  0.020  0.051  0.685
 
band    17 # energy    4.17793834 # occ.  1.00000000
 
ion      s     py     pz     px    dxy    dyz    dz2    dxz  x2-y2    tot
    1  0.000  0.017  0.000  0.006  0.029  0.015  0.000  0.005  0.088  0.160
    2  0.000  0.000  0.000  0.000  0.006  0.088  0.000  0.029  0.018  0.141
    3  0.000  0.118  0.000  0.039  0.000  0.000  0.000  0.000  0.001  0.159
    4  0.000  0.118  0.000  0.039  0.000  0.000  0.000  0.000  0.001  0.159
tot    0.000  0.254  0.000  0.085  0.036  0.103  0.000  0.034  0.107  0.618
 
band    18 # energy    5.18480929 # occ.  1.00000000
 
ion      s     py     pz     px    dxy    dyz    dz2    dxz  x2-y2    tot
    1  0.000  0.002  0.001  0.007  0.049  0.052  0.088  0.157  0.016  0.373
    2  0.020  0.001  0.008  0.002  0.000  0.002  0.013  0.006  0.000  0.052
    3  0.013  0.008  0.084  0.024  0.000  0.001  0.001  0.002  0.000  0.132
    4  0.013  0.008  0.084  0.024  0.000  0.001  0.001  0.002  0.000  0.132
tot    0.047  0.019  0.178  0.056  0.049  0.055  0.102  0.166  0.016  0.688
 
band    19 # energy    5.47628083 # occ.  1.00000000
 
ion      s     py     pz     px    dxy    dyz    dz2    dxz  x2-y2    tot
    1  0.000  0.001  0.000  0.000  0.010  0.173  0.000  0.058  0.029  0.271
    2  0.000  0.019  0.000  0.006  0.009  0.003  0.000  0.001  0.026  0.064
    3  0.000  0.114  0.000  0.038  0.000  0.002  0.000  0.001  0.000  0.155
    4  0.000  0.114  0.000  0.038  0.000  0.002  0.000  0.001  0.000  0.155
tot    0.000  0.247  0.000  0.082  0.018  0.180  0.000  0.060  0.055  0.644
 
band    20 # energy    6.63578130 # occ.  0.00000152
 
ion      s     py     pz     px    dxy    dyz    dz2    dxz  x2-y2    tot
    1  0.019  0.000  0.006  0.000  0.005  0.002  0.000  0.005  0.002  0.038
    2  0.010  0.000  0.000  0.001  0.216  0.043  0.137  0.129  0.072  0.608
    3  0.006  0.000  0.005  0.000  0.004  0.001  0.002  0.002  0.001  0.022
    4  0.006  0.000  0.005  0.000  0.004  0.001  0.002  0.002  0.001  0.022
tot    0.041  0.000  0.016  0.001  0.230  0.045  0.141  0.136  0.077  0.689
 
band    21 # energy    7.29838964 # occ.  0.00000000
 
ion      s     py     pz     px    dxy    dyz    dz2    dxz  x2-y2    tot
    1  0.046  0.000  0.001  0.000  0.001  0.000  0.003  0.000  0.000  0.051
    2  0.000  0.000  0.001  0.000  0.217  0.043  0.249  0.129  0.072  0.711
    3  0.013  0.001  0.005  0.004  0.000  0.001  0.001  0.004  0.000  0.028
    4  0.013  0.001  0.005  0.004  0.000  0.001  0.001  0.004  0.000  0.028
tot    0.072  0.003  0.012  0.008  0.218  0.045  0.253  0.136  0.073  0.819
 
band    22 # energy    7.46462267 # occ.  0.00000000
 
ion      s     py     pz     px    dxy    dyz    dz2    dxz  x2-y2    tot
    1  0.000  0.002  0.000  0.001  0.000  0.008  0.000  0.003  0.000  0.013
    2  0.000  0.002  0.000  0.001  0.201  0.015  0.000  0.005  0.604  0.828
    3  0.000  0.011  0.000  0.004  0.000  0.001  0.000  0.000  0.001  0.016
    4  0.000  0.011  0.000  0.004  0.000  0.001  0.000  0.000  0.001  0.016
tot    0.000  0.025  0.000  0.008  0.202  0.025  0.000  0.008  0.605  0.874
 
band    23 # energy    7.75943728 # occ.  0.00000000
 
ion      s     py     pz     px    dxy    dyz    dz2    dxz  x2-y2    tot
    1  0.000  0.017  0.000  0.006  0.001  0.000  0.000  0.000  0.004  0.029
    2  0.000  0.000  0.000  0.000  0.002  0.537  0.000  0.179  0.005  0.723
    3  0.000  0.025  0.000  0.008  0.000  0.005  0.000  0.002  0.001  0.040
    4  0.000  0.025  0.000  0.008  0.000  0.005  0.000  0.002  0.001  0.040
tot    0.000  0.067  0.000  0.022  0.004  0.546  0.000  0.182  0.011  0.832
 
band    24 # energy    7.76659527 # occ.  0.00000000
 
ion      s     py     pz     px    dxy    dyz    dz2    dxz  x2-y2    tot
    1  0.029  0.000  0.000  0.000  0.000  0.000  0.000  0.000  0.000  0.030
    2  0.004  0.002  0.000  0.005  0.007  0.095  0.361  0.284  0.002  0.760
    3  0.009  0.002  0.009  0.007  0.000  0.001  0.000  0.002  0.000  0.031
    4  0.009  0.002  0.009  0.007  0.000  0.001  0.000  0.002  0.000  0.031
tot    0.051  0.006  0.019  0.019  0.007  0.096  0.362  0.288  0.002  0.851
 

 k-point     8 :   -0.31578947 0.00000000 0.50000000     weight = 0.02500000

band     1 # energy  -44.23193678 # occ.  1.00000000
 
ion      s     py     pz     px    dxy    dyz    dz2    dxz  x2-y2    tot
    1  0.000  0.246  0.000  0.749  0.000  0.000  0.000  0.000  0.000  0.995
    2  0.000  0.000  0.000  0.000  0.000  0.000  0.000  0.000  0.000  0.000
    3  0.000  0.000  0.000  0.000  0.000  0.000  0.000  0.000  0.000  0.000
    4  0.000  0.000  0.000  0.000  0.000  0.000  0.000  0.000  0.000  0.000
tot    0.000  0.246  0.000  0.749  0.000  0.000  0.000  0.000  0.000  0.995
 
band     2 # energy  -44.23143136 # occ.  1.00000000
 
ion      s     py     pz     px    dxy    dyz    dz2    dxz  x2-y2    tot
    1  0.000  0.749  0.000  0.246  0.000  0.000  0.000  0.000  0.000  0.995
    2  0.000  0.000  0.000  0.000  0.000  0.000  0.000  0.000  0.000  0.000
    3  0.000  0.000  0.000  0.000  0.000  0.000  0.000  0.000  0.000  0.000
    4  0.000  0.000  0.000  0.000  0.000  0.000  0.000  0.000  0.000  0.000
tot    0.000  0.749  0.000  0.246  0.000  0.000  0.000  0.000  0.000  0.995
 
band     3 # energy  -44.22820404 # occ.  1.00000000
 
ion      s     py     pz     px    dxy    dyz    dz2    dxz  x2-y2    tot
    1  0.000  0.000  0.995  0.000  0.000  0.000  0.000  0.000  0.000  0.995
    2  0.000  0.000  0.000  0.000  0.000  0.000  0.000  0.000  0.000  0.000
    3  0.000  0.000  0.000  0.000  0.000  0.000  0.000  0.000  0.000  0.000
    4  0.000  0.000  0.000  0.000  0.000  0.000  0.000  0.000  0.000  0.000
tot    0.000  0.000  0.995  0.000  0.000  0.000  0.000  0.000  0.000  0.995
 
band     4 # energy  -39.85047130 # occ.  1.00000000
 
ion      s     py     pz     px    dxy    dyz    dz2    dxz  x2-y2    tot
    1  0.000  0.000  0.000  0.000  0.000  0.000  0.000  0.000  0.000  0.000
    2  0.000  0.000  0.995  0.000  0.000  0.000  0.000  0.000  0.000  0.995
    3  0.000  0.000  0.000  0.000  0.000  0.000  0.000  0.000  0.000  0.000
    4  0.000  0.000  0.000  0.000  0.000  0.000  0.000  0.000  0.000  0.000
tot    0.000  0.000  0.995  0.000  0.000  0.000  0.000  0.000  0.000  0.995
 
band     5 # energy  -39.84461950 # occ.  1.00000000
 
ion      s     py     pz     px    dxy    dyz    dz2    dxz  x2-y2    tot
    1  0.000  0.000  0.000  0.000  0.000  0.000  0.000  0.000  0.000  0.000
    2  0.000  0.246  0.000  0.750  0.000  0.000  0.000  0.000  0.000  0.995
    3  0.000  0.000  0.000  0.000  0.000  0.000  0.000  0.000  0.000  0.000
    4  0.000  0.000  0.000  0.000  0.000  0.000  0.000  0.000  0.000  0.000
tot    0.000  0.246  0.000  0.750  0.000  0.000  0.000  0.000  0.000  0.995
 
band     6 # energy  -39.84386285 # occ.  1.00000000
 
ion      s     py     pz     px    dxy    dyz    dz2    dxz  x2-y2    tot
    1  0.000  0.000  0.000  0.000  0.000  0.000  0.000  0.000  0.000  0.000
    2  0.000  0.750  0.000  0.246  0.000  0.000  0.000  0.000  0.000  0.995
    3  0.000  0.000  0.000  0.000  0.000  0.000  0.000  0.000  0.000  0.000
    4  0.000  0.000  0.000  0.000  0.000  0.000  0.000  0.000  0.000  0.000
tot    0.000  0.750  0.000  0.246  0.000  0.000  0.000  0.000  0.000  0.996
 
band     7 # energy   -4.96713400 # occ.  1.00000000
 
ion      s     py     pz     px    dxy    dyz    dz2    dxz  x2-y2    tot
    1  0.014  0.001  0.000  0.002  0.001  0.001  0.000  0.002  0.000  0.020
    2  0.001  0.000  0.002  0.001  0.001  0.001  0.000  0.002  0.000  0.007
    3  0.313  0.000  0.001  0.000  0.000  0.000  0.000  0.000  0.000  0.314
    4  0.313  0.000  0.001  0.000  0.000  0.000  0.000  0.000  0.000  0.314
tot    0.640  0.001  0.003  0.004  0.002  0.001  0.000  0.003  0.001  0.655
 
band     8 # energy   -4.94927440 # occ.  1.00000000
 
ion      s     py     pz     px    dxy    dyz    dz2    dxz  x2-y2    tot
    1  0.001  0.000  0.003  0.001  0.001  0.001  0.000  0.003  0.000  0.010
    2  0.010  0.001  0.000  0.002  0.001  0.000  0.000  0.001  0.000  0.015
    3  0.315  0.000  0.001  0.000  0.000  0.000  0.000  0.000  0.000  0.316
    4  0.315  0.000  0.001  0.000  0.000  0.000  0.000  0.000  0.000  0.316
tot    0.641  0.001  0.004  0.004  0.002  0.001  0.000  0.004  0.001  0.657
 
band     9 # energy    1.50616352 # occ.  1.00000000
 
ion      s     py     pz     px    dxy    dyz    dz2    dxz  x2-y2    tot
    1  0.047  0.001  0.001  0.002  0.090  0.000  0.001  0.001  0.030  0.173
    2  0.017  0.001  0.003  0.003  0.003  0.003  0.000  0.008  0.001  0.038
    3  0.013  0.020  0.039  0.060  0.000  0.000  0.000  0.000  0.000  0.133
    4  0.013  0.020  0.039  0.060  0.000  0.000  0.000  0.000  0.000  0.133
tot    0.091  0.042  0.082  0.126  0.092  0.003  0.002  0.009  0.031  0.477
 
band    10 # energy    1.58019420 # occ.  1.00000000
 
ion      s     py     pz     px    dxy    dyz    dz2    dxz  x2-y2    tot
    1  0.033  0.001  0.004  0.003  0.016  0.021  0.000  0.063  0.005  0.147
    2  0.033  0.001  0.001  0.002  0.012  0.000  0.000  0.001  0.004  0.053
    3  0.013  0.022  0.036  0.067  0.000  0.000  0.000  0.000  0.000  0.138
    4  0.013  0.022  0.036  0.067  0.000  0.000  0.000  0.000  0.000  0.138
tot    0.091  0.046  0.077  0.138  0.029  0.021  0.000  0.064  0.010  0.475
 
band    11 # energy    2.69953442 # occ.  1.00000000
 
ion      s     py     pz     px    dxy    dyz    dz2    dxz  x2-y2    tot
    1  0.000  0.000  0.000  0.000  0.030  0.399  0.000  0.133  0.091  0.652
    2  0.000  0.003  0.000  0.001  0.000  0.000  0.000  0.000  0.001  0.005
    3  0.000  0.047  0.000  0.016  0.000  0.000  0.000  0.000  0.001  0.063
    4  0.000  0.047  0.000  0.016  0.000  0.000  0.000  0.000  0.001  0.063
tot    0.000  0.096  0.000  0.032  0.031  0.399  0.000  0.133  0.092  0.784
 
band    12 # energy    2.73930390 # occ.  1.00000000
 
ion      s     py     pz     px    dxy    dyz    dz2    dxz  x2-y2    tot
    1  0.000  0.002  0.000  0.006  0.018  0.018  0.471  0.053  0.006  0.572
    2  0.000  0.000  0.009  0.000  0.001  0.000  0.000  0.000  0.000  0.012
    3  0.001  0.004  0.046  0.011  0.001  0.000  0.001  0.000  0.000  0.064
    4  0.001  0.004  0.046  0.011  0.001  0.000  0.001  0.000  0.000  0.064
tot    0.002  0.010  0.102  0.029  0.020  0.018  0.472  0.053  0.007  0.711
 
band    13 # energy    3.27797085 # occ.  1.00000000
 
ion      s     py     pz     px    dxy    dyz    dz2    dxz  x2-y2    tot
    1  0.000  0.003  0.000  0.001  0.158  0.108  0.000  0.036  0.475  0.781
    2  0.000  0.000  0.000  0.000  0.001  0.007  0.000  0.002  0.002  0.011
    3  0.000  0.020  0.000  0.007  0.000  0.000  0.000  0.000  0.000  0.028
    4  0.000  0.020  0.000  0.007  0.000  0.000  0.000  0.000  0.000  0.028
tot    0.000  0.044  0.000  0.015  0.159  0.116  0.000  0.039  0.477  0.848
 
band    14 # energy    3.30957930 # occ.  1.00000000
 
ion      s     py     pz     px    dxy    dyz    dz2    dxz  x2-y2    tot
    1  0.006  0.000  0.001  0.000  0.155  0.125  0.086  0.376  0.052  0.801
    2  0.000  0.000  0.000  0.001  0.002  0.000  0.001  0.001  0.001  0.008
    3  0.002  0.001  0.014  0.002  0.000  0.000  0.001  0.000  0.000  0.020
    4  0.002  0.001  0.014  0.002  0.000  0.000  0.001  0.000  0.000  0.020
tot    0.011  0.002  0.028  0.005  0.158  0.126  0.089  0.377  0.053  0.848
 
band    15 # energy    3.55038009 # occ.  1.00000000
 
ion      s     py     pz     px    dxy    dyz    dz2    dxz  x2-y2    tot
    1  0.012  0.000  0.018  0.000  0.177  0.002  0.061  0.007  0.059  0.336
    2  0.006  0.002  0.000  0.006  0.001  0.007  0.022  0.020  0.000  0.065
    3  0.003  0.015  0.048  0.046  0.001  0.000  0.000  0.000  0.000  0.114
    4  0.003  0.015  0.048  0.046  0.001  0.000  0.000  0.000  0.000  0.114
tot    0.022  0.033  0.114  0.098  0.180  0.009  0.084  0.028  0.060  0.629
 
band    16 # energy    4.06165679 # occ.  1.00000000
 
ion      s     py     pz     px    dxy    dyz    dz2    dxz  x2-y2    tot
    1  0.000  0.002  0.008  0.006  0.170  0.009  0.174  0.027  0.057  0.452
    2  0.005  0.001  0.001  0.004  0.008  0.002  0.022  0.005  0.003  0.051
    3  0.007  0.004  0.079  0.011  0.000  0.000  0.000  0.000  0.000  0.102
    4  0.007  0.004  0.079  0.011  0.000  0.000  0.000  0.000  0.000  0.102
tot    0.019  0.010  0.168  0.031  0.179  0.011  0.197  0.032  0.060  0.706
 
band    17 # energy    4.24339563 # occ.  1.00000000
 
ion      s     py     pz     px    dxy    dyz    dz2    dxz  x2-y2    tot
    1  0.000  0.016  0.000  0.005  0.028  0.018  0.000  0.006  0.085  0.158
    2  0.000  0.000  0.000  0.000  0.007  0.089  0.000  0.030  0.022  0.149
    3  0.000  0.118  0.000  0.039  0.000  0.000  0.000  0.000  0.001  0.159
    4  0.000  0.118  0.000  0.039  0.000  0.000  0.000  0.000  0.001  0.159
tot    0.000  0.253  0.000  0.084  0.036  0.107  0.000  0.036  0.108  0.625
 
band    18 # energy    5.10218278 # occ.  1.00000000
 
ion      s     py     pz     px    dxy    dyz    dz2    dxz  x2-y2    tot
    1  0.000  0.003  0.001  0.008  0.036  0.050  0.112  0.150  0.012  0.372
    2  0.021  0.000  0.009  0.000  0.000  0.002  0.009  0.006  0.000  0.048
    3  0.012  0.010  0.079  0.029  0.000  0.001  0.001  0.002  0.000  0.133
    4  0.012  0.010  0.079  0.029  0.000  0.001  0.001  0.002  0.000  0.133
tot    0.044  0.022  0.168  0.067  0.037  0.053  0.122  0.159  0.012  0.685
 
band    19 # energy    5.49920152 # occ.  1.00000000
 
ion      s     py     pz     px    dxy    dyz    dz2    dxz  x2-y2    tot
    1  0.000  0.001  0.000  0.000  0.012  0.160  0.000  0.053  0.035  0.261
    2  0.000  0.018  0.000  0.006  0.011  0.005  0.000  0.002  0.032  0.073
    3  0.000  0.114  0.000  0.038  0.000  0.002  0.000  0.001  0.000  0.155
    4  0.000  0.114  0.000  0.038  0.000  0.002  0.000  0.001  0.000  0.155
tot    0.000  0.246  0.000  0.082  0.022  0.169  0.000  0.056  0.067  0.644
 
band    20 # energy    6.65825359 # occ.  0.00000006
 
ion      s     py     pz     px    dxy    dyz    dz2    dxz  x2-y2    tot
    1  0.022  0.000  0.005  0.000  0.005  0.002  0.000  0.005  0.002  0.040
    2  0.011  0.000  0.000  0.001  0.239  0.038  0.127  0.114  0.080  0.610
    3  0.007  0.000  0.005  0.000  0.004  0.001  0.002  0.002  0.001  0.021
    4  0.007  0.000  0.005  0.000  0.004  0.001  0.002  0.002  0.001  0.021
tot    0.047  0.000  0.014  0.001  0.252  0.041  0.131  0.122  0.084  0.693
 
band    21 # energy    7.26092646 # occ.  0.00000000
 
ion      s     py     pz     px    dxy    dyz    dz2    dxz  x2-y2    tot
    1  0.046  0.000  0.001  0.000  0.001  0.000  0.002  0.000  0.000  0.051
    2  0.000  0.000  0.001  0.000  0.199  0.059  0.216  0.178  0.066  0.719
    3  0.014  0.001  0.004  0.003  0.000  0.001  0.001  0.004  0.000  0.028
    4  0.014  0.001  0.004  0.003  0.000  0.001  0.001  0.004  0.000  0.028
tot    0.075  0.002  0.009  0.006  0.200  0.062  0.219  0.186  0.067  0.825
 
band    22 # energy    7.48029838 # occ.  0.00000000
 
ion      s     py     pz     px    dxy    dyz    dz2    dxz  x2-y2    tot
    1  0.000  0.001  0.000  0.000  0.000  0.010  0.000  0.003  0.001  0.016
    2  0.000  0.003  0.000  0.001  0.191  0.039  0.000  0.013  0.572  0.817
    3  0.000  0.013  0.000  0.004  0.000  0.001  0.000  0.000  0.001  0.020
    4  0.000  0.013  0.000  0.004  0.000  0.001  0.000  0.000  0.001  0.020
tot    0.000  0.030  0.000  0.010  0.191  0.050  0.000  0.017  0.574  0.872
 
band    23 # energy    7.75047431 # occ.  0.00000000
 
ion      s     py     pz     px    dxy    dyz    dz2    dxz  x2-y2    tot
    1  0.020  0.000  0.000  0.000  0.000  0.000  0.000  0.000  0.000  0.020
    2  0.002  0.002  0.000  0.005  0.011  0.089  0.407  0.267  0.004  0.785
    3  0.006  0.003  0.011  0.008  0.000  0.000  0.000  0.001  0.000  0.031
    4  0.006  0.003  0.011  0.008  0.000  0.000  0.000  0.001  0.000  0.031
tot    0.034  0.007  0.023  0.021  0.011  0.090  0.407  0.270  0.004  0.867
 
band    24 # energy    7.77059037 # occ.  0.00000000
 
ion      s     py     pz     px    dxy    dyz    dz2    dxz  x2-y2    tot
    1  0.000  0.017  0.000  0.006  0.002  0.000  0.000  0.000  0.005  0.030
    2  0.000  0.000  0.000  0.000  0.008  0.511  0.000  0.170  0.023  0.712
    3  0.000  0.027  0.000  0.009  0.000  0.005  0.000  0.002  0.001  0.043
    4  0.000  0.027  0.000  0.009  0.000  0.005  0.000  0.002  0.001  0.043
tot    0.000  0.072  0.000  0.024  0.010  0.521  0.000  0.174  0.029  0.829
 

 k-point     9 :   -0.28947368 0.00000000 0.50000000     weight = 0.02500000

band     1 # energy  -44.23186559 # occ.  1.00000000
 
ion      s     py     pz     px    dxy    dyz    dz2    dxz  x2-y2    tot
    1  0.000  0.246  0.000  0.750  0.000  0.000  0.000  0.000  0.000  0.995
    2  0.000  0.000  0.000  0.000  0.000  0.000  0.000  0.000  0.000  0.000
    3  0.000  0.000  0.000  0.000  0.000  0.000  0.000  0.000  0.000  0.000
    4  0.000  0.000  0.000  0.000  0.000  0.000  0.000  0.000  0.000  0.000
tot    0.000  0.246  0.000  0.750  0.000  0.000  0.000  0.000  0.000  0.995
 
band     2 # energy  -44.23140410 # occ.  1.00000000
 
ion      s     py     pz     px    dxy    dyz    dz2    dxz  x2-y2    tot
    1  0.000  0.750  0.000  0.246  0.000  0.000  0.000  0.000  0.000  0.995
    2  0.000  0.000  0.000  0.000  0.000  0.000  0.000  0.000  0.000  0.000
    3  0.000  0.000  0.000  0.000  0.000  0.000  0.000  0.000  0.000  0.000
    4  0.000  0.000  0.000  0.000  0.000  0.000  0.000  0.000  0.000  0.000
tot    0.000  0.750  0.000  0.246  0.000  0.000  0.000  0.000  0.000  0.995
 
band     3 # energy  -44.22820971 # occ.  1.00000000
 
ion      s     py     pz     px    dxy    dyz    dz2    dxz  x2-y2    tot
    1  0.000  0.000  0.995  0.000  0.000  0.000  0.000  0.000  0.000  0.995
    2  0.000  0.000  0.000  0.000  0.000  0.000  0.000  0.000  0.000  0.000
    3  0.000  0.000  0.000  0.000  0.000  0.000  0.000  0.000  0.000  0.000
    4  0.000  0.000  0.000  0.000  0.000  0.000  0.000  0.000  0.000  0.000
tot    0.000  0.000  0.995  0.000  0.000  0.000  0.000  0.000  0.000  0.995
 
band     4 # energy  -39.85048157 # occ.  1.00000000
 
ion      s     py     pz     px    dxy    dyz    dz2    dxz  x2-y2    tot
    1  0.000  0.000  0.000  0.000  0.000  0.000  0.000  0.000  0.000  0.000
    2  0.000  0.000  0.995  0.000  0.000  0.000  0.000  0.000  0.000  0.995
    3  0.000  0.000  0.000  0.000  0.000  0.000  0.000  0.000  0.000  0.000
    4  0.000  0.000  0.000  0.000  0.000  0.000  0.000  0.000  0.000  0.000
tot    0.000  0.000  0.995  0.000  0.000  0.000  0.000  0.000  0.000  0.995
 
band     5 # energy  -39.84451301 # occ.  1.00000000
 
ion      s     py     pz     px    dxy    dyz    dz2    dxz  x2-y2    tot
    1  0.000  0.000  0.000  0.000  0.000  0.000  0.000  0.000  0.000  0.000
    2  0.000  0.246  0.000  0.750  0.000  0.000  0.000  0.000  0.000  0.995
    3  0.000  0.000  0.000  0.000  0.000  0.000  0.000  0.000  0.000  0.000
    4  0.000  0.000  0.000  0.000  0.000  0.000  0.000  0.000  0.000  0.000
tot    0.000  0.246  0.000  0.750  0.000  0.000  0.000  0.000  0.000  0.995
 
band     6 # energy  -39.84382383 # occ.  1.00000000
 
ion      s     py     pz     px    dxy    dyz    dz2    dxz  x2-y2    tot
    1  0.000  0.000  0.000  0.000  0.000  0.000  0.000  0.000  0.000  0.000
    2  0.000  0.750  0.000  0.246  0.000  0.000  0.000  0.000  0.000  0.996
    3  0.000  0.000  0.000  0.000  0.000  0.000  0.000  0.000  0.000  0.000
    4  0.000  0.000  0.000  0.000  0.000  0.000  0.000  0.000  0.000  0.000
tot    0.000  0.750  0.000  0.246  0.000  0.000  0.000  0.000  0.000  0.996
 
band     7 # energy   -5.03285360 # occ.  1.00000000
 
ion      s     py     pz     px    dxy    dyz    dz2    dxz  x2-y2    tot
    1  0.016  0.001  0.000  0.002  0.001  0.000  0.000  0.001  0.000  0.021
    2  0.000  0.000  0.003  0.000  0.001  0.001  0.000  0.002  0.000  0.007
    3  0.309  0.000  0.001  0.001  0.000  0.000  0.000  0.000  0.000  0.310
    4  0.309  0.000  0.001  0.001  0.000  0.000  0.000  0.000  0.000  0.310
tot    0.635  0.001  0.004  0.004  0.001  0.001  0.000  0.003  0.000  0.649
 
band     8 # energy   -5.01234840 # occ.  1.00000000
 
ion      s     py     pz     px    dxy    dyz    dz2    dxz  x2-y2    tot
    1  0.000  0.000  0.003  0.001  0.001  0.001  0.000  0.003  0.000  0.010
    2  0.012  0.001  0.000  0.002  0.000  0.000  0.000  0.001  0.000  0.016
    3  0.311  0.000  0.001  0.000  0.000  0.000  0.000  0.000  0.000  0.313
    4  0.311  0.000  0.001  0.000  0.000  0.000  0.000  0.000  0.000  0.313
tot    0.636  0.001  0.005  0.003  0.001  0.001  0.000  0.003  0.000  0.651
 
band     9 # energy    1.62776183 # occ.  1.00000000
 
ion      s     py     pz     px    dxy    dyz    dz2    dxz  x2-y2    tot
    1  0.014  0.001  0.002  0.004  0.124  0.008  0.000  0.023  0.041  0.217
    2  0.036  0.000  0.001  0.001  0.000  0.002  0.000  0.005  0.000  0.046
    3  0.012  0.018  0.045  0.053  0.000  0.000  0.000  0.000  0.000  0.127
    4  0.012  0.018  0.045  0.053  0.000  0.000  0.000  0.000  0.000  0.127
tot    0.074  0.037  0.092  0.111  0.124  0.009  0.001  0.028  0.041  0.518
 
band    10 # energy    1.70997246 # occ.  1.00000000
 
ion      s     py     pz     px    dxy    dyz    dz2    dxz  x2-y2    tot
    1  0.065  0.000  0.002  0.001  0.000  0.018  0.001  0.053  0.000  0.139
    2  0.011  0.001  0.001  0.003  0.017  0.002  0.000  0.005  0.006  0.046
    3  0.019  0.021  0.042  0.063  0.000  0.000  0.000  0.000  0.000  0.145
    4  0.019  0.021  0.042  0.063  0.000  0.000  0.000  0.000  0.000  0.145
tot    0.114  0.043  0.086  0.130  0.017  0.019  0.001  0.058  0.006  0.475
 
band    11 # energy    2.71250615 # occ.  1.00000000
 
ion      s     py     pz     px    dxy    dyz    dz2    dxz  x2-y2    tot
    1  0.000  0.000  0.000  0.000  0.038  0.381  0.000  0.127  0.114  0.660
    2  0.000  0.003  0.000  0.001  0.000  0.000  0.000  0.000  0.001  0.005
    3  0.000  0.045  0.000  0.015  0.000  0.000  0.000  0.000  0.001  0.062
    4  0.000  0.045  0.000  0.015  0.000  0.000  0.000  0.000  0.001  0.062
tot    0.000  0.094  0.000  0.031  0.038  0.382  0.000  0.127  0.115  0.788
 
band    12 # energy    2.73524680 # occ.  1.00000000
 
ion      s     py     pz     px    dxy    dyz    dz2    dxz  x2-y2    tot
    1  0.000  0.002  0.000  0.006  0.004  0.017  0.503  0.050  0.001  0.583
    2  0.000  0.000  0.010  0.000  0.000  0.000  0.000  0.000  0.000  0.011
    3  0.001  0.004  0.040  0.013  0.000  0.000  0.001  0.000  0.000  0.060
    4  0.001  0.004  0.040  0.013  0.000  0.000  0.001  0.000  0.000  0.060
tot    0.001  0.011  0.091  0.032  0.006  0.017  0.504  0.050  0.002  0.714
 
band    13 # energy    3.25608002 # occ.  1.00000000
 
ion      s     py     pz     px    dxy    dyz    dz2    dxz  x2-y2    tot
    1  0.000  0.002  0.000  0.001  0.150  0.135  0.000  0.045  0.450  0.783
    2  0.000  0.000  0.000  0.000  0.001  0.006  0.000  0.002  0.002  0.011
    3  0.000  0.020  0.000  0.007  0.000  0.000  0.000  0.000  0.000  0.027
    4  0.000  0.020  0.000  0.007  0.000  0.000  0.000  0.000  0.000  0.027
tot    0.000  0.042  0.000  0.014  0.151  0.141  0.000  0.047  0.452  0.847
 
band    14 # energy    3.31639190 # occ.  1.00000000
 
ion      s     py     pz     px    dxy    dyz    dz2    dxz  x2-y2    tot
    1  0.008  0.000  0.000  0.000  0.194  0.116  0.077  0.348  0.065  0.809
    2  0.001  0.000  0.000  0.001  0.003  0.000  0.001  0.001  0.001  0.008
    3  0.002  0.000  0.012  0.001  0.001  0.000  0.001  0.000  0.000  0.018
    4  0.002  0.000  0.012  0.001  0.001  0.000  0.001  0.000  0.000  0.018
tot    0.014  0.001  0.024  0.004  0.198  0.117  0.079  0.350  0.066  0.852
 
band    15 # energy    3.66529414 # occ.  1.00000000
 
ion      s     py     pz     px    dxy    dyz    dz2    dxz  x2-y2    tot
    1  0.009  0.000  0.024  0.001  0.099  0.003  0.024  0.008  0.033  0.199
    2  0.003  0.003  0.000  0.008  0.001  0.007  0.034  0.021  0.000  0.077
    3  0.002  0.019  0.061  0.057  0.001  0.000  0.001  0.000  0.000  0.141
    4  0.002  0.019  0.061  0.057  0.001  0.000  0.001  0.000  0.000  0.141
tot    0.016  0.041  0.146  0.123  0.101  0.010  0.059  0.029  0.034  0.558
 
band    16 # energy    4.05688228 # occ.  1.00000000
 
ion      s     py     pz     px    dxy    dyz    dz2    dxz  x2-y2    tot
    1  0.000  0.002  0.005  0.005  0.215  0.019  0.164  0.056  0.072  0.537
    2  0.011  0.001  0.001  0.002  0.005  0.000  0.017  0.001  0.002  0.040
    3  0.011  0.003  0.063  0.008  0.000  0.000  0.000  0.001  0.000  0.086
    4  0.011  0.003  0.063  0.008  0.000  0.000  0.000  0.001  0.000  0.086
tot    0.034  0.007  0.131  0.022  0.221  0.019  0.181  0.058  0.074  0.748
 
band    17 # energy    4.30464616 # occ.  1.00000000
 
ion      s     py     pz     px    dxy    dyz    dz2    dxz  x2-y2    tot
    1  0.000  0.015  0.000  0.005  0.026  0.021  0.000  0.007  0.077  0.152
    2  0.000  0.001  0.000  0.000  0.009  0.089  0.000  0.030  0.028  0.157
    3  0.000  0.119  0.000  0.040  0.000  0.000  0.000  0.000  0.001  0.160
    4  0.000  0.119  0.000  0.040  0.000  0.000  0.000  0.000  0.001  0.160
tot    0.000  0.254  0.000  0.085  0.036  0.111  0.000  0.037  0.107  0.629
 
band    18 # energy    5.04118998 # occ.  1.00000000
 
ion      s     py     pz     px    dxy    dyz    dz2    dxz  x2-y2    tot
    1  0.000  0.003  0.000  0.009  0.025  0.046  0.137  0.139  0.008  0.368
    2  0.020  0.000  0.010  0.000  0.001  0.002  0.005  0.005  0.000  0.042
    3  0.010  0.012  0.074  0.037  0.000  0.000  0.001  0.001  0.000  0.135
    4  0.010  0.012  0.074  0.037  0.000  0.000  0.001  0.001  0.000  0.135
tot    0.039  0.027  0.159  0.082  0.026  0.049  0.143  0.146  0.009  0.680
 
band    19 # energy    5.53192121 # occ.  1.00000000
 
ion      s     py     pz     px    dxy    dyz    dz2    dxz  x2-y2    tot
    1  0.000  0.002  0.000  0.001  0.014  0.145  0.000  0.048  0.042  0.252
    2  0.000  0.017  0.000  0.006  0.012  0.008  0.000  0.003  0.037  0.082
    3  0.000  0.114  0.000  0.038  0.000  0.002  0.000  0.001  0.000  0.155
    4  0.000  0.114  0.000  0.038  0.000  0.002  0.000  0.001  0.000  0.155
tot    0.000  0.246  0.000  0.082  0.026  0.158  0.000  0.053  0.079  0.644
 
band    20 # energy    6.68604347 # occ.  0.00000000
 
ion      s     py     pz     px    dxy    dyz    dz2    dxz  x2-y2    tot
    1  0.023  0.000  0.005  0.001  0.004  0.002  0.000  0.005  0.001  0.040
    2  0.012  0.000  0.000  0.001  0.257  0.035  0.122  0.104  0.086  0.616
    3  0.007  0.000  0.004  0.000  0.004  0.001  0.002  0.002  0.001  0.021
    4  0.007  0.000  0.004  0.000  0.004  0.001  0.002  0.002  0.001  0.021
tot    0.050  0.000  0.013  0.001  0.269  0.037  0.126  0.112  0.090  0.699
 
band    21 # energy    7.23414199 # occ.  0.00000000
 
ion      s     py     pz     px    dxy    dyz    dz2    dxz  x2-y2    tot
    1  0.045  0.000  0.001  0.000  0.001  0.000  0.001  0.000  0.000  0.049
    2  0.000  0.000  0.000  0.000  0.187  0.073  0.188  0.218  0.062  0.729
    3  0.015  0.001  0.003  0.002  0.000  0.001  0.001  0.004  0.000  0.027
    4  0.015  0.001  0.003  0.002  0.000  0.001  0.001  0.004  0.000  0.027
tot    0.076  0.001  0.007  0.004  0.188  0.075  0.190  0.226  0.063  0.831
 
band    22 # energy    7.48917525 # occ.  0.00000000
 
ion      s     py     pz     px    dxy    dyz    dz2    dxz  x2-y2    tot
    1  0.000  0.000  0.000  0.000  0.001  0.011  0.000  0.004  0.002  0.018
    2  0.000  0.003  0.000  0.001  0.174  0.078  0.000  0.026  0.523  0.805
    3  0.000  0.016  0.000  0.005  0.000  0.000  0.000  0.000  0.001  0.023
    4  0.000  0.016  0.000  0.005  0.000  0.000  0.000  0.000  0.001  0.023
tot    0.000  0.036  0.000  0.012  0.176  0.090  0.000  0.030  0.527  0.870
 
band    23 # energy    7.72934504 # occ.  0.00000000
 
ion      s     py     pz     px    dxy    dyz    dz2    dxz  x2-y2    tot
    1  0.013  0.000  0.000  0.000  0.000  0.000  0.000  0.000  0.000  0.014
    2  0.000  0.001  0.000  0.004  0.014  0.083  0.438  0.249  0.005  0.794
    3  0.005  0.003  0.012  0.010  0.000  0.000  0.000  0.001  0.000  0.032
    4  0.005  0.003  0.012  0.010  0.000  0.000  0.000  0.001  0.000  0.032
tot    0.023  0.008  0.025  0.025  0.014  0.084  0.438  0.251  0.005  0.873
 
band    24 # energy    7.78884895 # occ.  0.00000000
 
ion      s     py     pz     px    dxy    dyz    dz2    dxz  x2-y2    tot
    1  0.000  0.017  0.000  0.006  0.002  0.001  0.000  0.000  0.005  0.031
    2  0.000  0.000  0.000  0.000  0.018  0.470  0.000  0.157  0.056  0.701
    3  0.000  0.030  0.000  0.010  0.000  0.005  0.000  0.002  0.001  0.047
    4  0.000  0.030  0.000  0.010  0.000  0.005  0.000  0.002  0.001  0.047
tot    0.000  0.077  0.000  0.026  0.021  0.480  0.000  0.160  0.063  0.827
 

 k-point    10 :   -0.26315789 0.00000000 0.50000000     weight = 0.02500000

band     1 # energy  -44.23179542 # occ.  1.00000000
 
ion      s     py     pz     px    dxy    dyz    dz2    dxz  x2-y2    tot
    1  0.000  0.245  0.000  0.750  0.000  0.000  0.000  0.000  0.000  0.995
    2  0.000  0.000  0.000  0.000  0.000  0.000  0.000  0.000  0.000  0.000
    3  0.000  0.000  0.000  0.000  0.000  0.000  0.000  0.000  0.000  0.000
    4  0.000  0.000  0.000  0.000  0.000  0.000  0.000  0.000  0.000  0.000
tot    0.000  0.245  0.000  0.750  0.000  0.000  0.000  0.000  0.000  0.995
 
band     2 # energy  -44.23139752 # occ.  1.00000000
 
ion      s     py     pz     px    dxy    dyz    dz2    dxz  x2-y2    tot
    1  0.000  0.750  0.000  0.245  0.000  0.000  0.000  0.000  0.000  0.995
    2  0.000  0.000  0.000  0.000  0.000  0.000  0.000  0.000  0.000  0.000
    3  0.000  0.000  0.000  0.000  0.000  0.000  0.000  0.000  0.000  0.000
    4  0.000  0.000  0.000  0.000  0.000  0.000  0.000  0.000  0.000  0.000
tot    0.000  0.750  0.000  0.245  0.000  0.000  0.000  0.000  0.000  0.995
 
band     3 # energy  -44.22822840 # occ.  1.00000000
 
ion      s     py     pz     px    dxy    dyz    dz2    dxz  x2-y2    tot
    1  0.000  0.000  0.995  0.000  0.000  0.000  0.000  0.000  0.000  0.995
    2  0.000  0.000  0.000  0.000  0.000  0.000  0.000  0.000  0.000  0.000
    3  0.000  0.000  0.000  0.000  0.000  0.000  0.000  0.000  0.000  0.000
    4  0.000  0.000  0.000  0.000  0.000  0.000  0.000  0.000  0.000  0.000
tot    0.000  0.000  0.995  0.000  0.000  0.000  0.000  0.000  0.000  0.995
 
band     4 # energy  -39.85050962 # occ.  1.00000000
 
ion      s     py     pz     px    dxy    dyz    dz2    dxz  x2-y2    tot
    1  0.000  0.000  0.000  0.000  0.000  0.000  0.000  0.000  0.000  0.000
    2  0.000  0.000  0.995  0.000  0.000  0.000  0.000  0.000  0.000  0.995
    3  0.000  0.000  0.000  0.000  0.000  0.000  0.000  0.000  0.000  0.000
    4  0.000  0.000  0.000  0.000  0.000  0.000  0.000  0.000  0.000  0.000
tot    0.000  0.000  0.995  0.000  0.000  0.000  0.000  0.000  0.000  0.995
 
band     5 # energy  -39.84440778 # occ.  1.00000000
 
ion      s     py     pz     px    dxy    dyz    dz2    dxz  x2-y2    tot
    1  0.000  0.000  0.000  0.000  0.000  0.000  0.000  0.000  0.000  0.000
    2  0.000  0.245  0.000  0.750  0.000  0.000  0.000  0.000  0.000  0.995
    3  0.000  0.000  0.000  0.000  0.000  0.000  0.000  0.000  0.000  0.000
    4  0.000  0.000  0.000  0.000  0.000  0.000  0.000  0.000  0.000  0.000
tot    0.000  0.245  0.000  0.750  0.000  0.000  0.000  0.000  0.000  0.995
 
band     6 # energy  -39.84381252 # occ.  1.00000000
 
ion      s     py     pz     px    dxy    dyz    dz2    dxz  x2-y2    tot
    1  0.000  0.000  0.000  0.000  0.000  0.000  0.000  0.000  0.000  0.000
    2  0.000  0.750  0.000  0.245  0.000  0.000  0.000  0.000  0.000  0.995
    3  0.000  0.000  0.000  0.000  0.000  0.000  0.000  0.000  0.000  0.000
    4  0.000  0.000  0.000  0.000  0.000  0.000  0.000  0.000  0.000  0.000
tot    0.000  0.750  0.000  0.245  0.000  0.000  0.000  0.000  0.000  0.996
 
band     7 # energy   -5.09933084 # occ.  1.00000000
 
ion      s     py     pz     px    dxy    dyz    dz2    dxz  x2-y2    tot
    1  0.019  0.001  0.000  0.002  0.000  0.000  0.000  0.000  0.000  0.023
    2  0.000  0.000  0.003  0.000  0.001  0.001  0.000  0.002  0.000  0.006
    3  0.306  0.000  0.001  0.001  0.000  0.000  0.000  0.000  0.000  0.307
    4  0.306  0.000  0.001  0.001  0.000  0.000  0.000  0.000  0.000  0.307
tot    0.630  0.001  0.005  0.003  0.001  0.001  0.000  0.002  0.000  0.643
 
band     8 # energy   -5.07545743 # occ.  1.00000000
 
ion      s     py     pz     px    dxy    dyz    dz2    dxz  x2-y2    tot
    1  0.000  0.000  0.004  0.000  0.001  0.001  0.000  0.003  0.000  0.009
    2  0.014  0.001  0.000  0.002  0.000  0.000  0.000  0.000  0.000  0.017
    3  0.308  0.000  0.001  0.000  0.000  0.000  0.000  0.000  0.000  0.310
    4  0.308  0.000  0.001  0.000  0.000  0.000  0.000  0.000  0.000  0.310
tot    0.631  0.001  0.005  0.003  0.001  0.001  0.000  0.003  0.000  0.646
 
band     9 # energy    1.73212979 # occ.  1.00000000
 
ion      s     py     pz     px    dxy    dyz    dz2    dxz  x2-y2    tot
    1  0.003  0.001  0.001  0.003  0.137  0.016  0.000  0.048  0.046  0.256
    2  0.041  0.000  0.000  0.000  0.000  0.001  0.000  0.003  0.000  0.046
    3  0.011  0.016  0.048  0.048  0.000  0.000  0.000  0.000  0.000  0.123
    4  0.011  0.016  0.048  0.048  0.000  0.000  0.000  0.000  0.000  0.123
tot    0.067  0.033  0.098  0.099  0.137  0.017  0.001  0.051  0.046  0.549
 
band    10 # energy    1.85441179 # occ.  1.00000000
 
ion      s     py     pz     px    dxy    dyz    dz2    dxz  x2-y2    tot
    1  0.077  0.000  0.001  0.000  0.004  0.012  0.005  0.037  0.001  0.138
    2  0.003  0.001  0.001  0.003  0.018  0.003  0.000  0.009  0.006  0.044
    3  0.023  0.018  0.053  0.055  0.000  0.000  0.000  0.000  0.000  0.150
    4  0.023  0.018  0.053  0.055  0.000  0.000  0.000  0.000  0.000  0.150
tot    0.126  0.038  0.107  0.113  0.023  0.015  0.005  0.046  0.008  0.482
 
band    11 # energy    2.72315528 # occ.  1.00000000
 
ion      s     py     pz     px    dxy    dyz    dz2    dxz  x2-y2    tot
    1  0.000  0.000  0.000  0.000  0.047  0.358  0.000  0.119  0.142  0.667
    2  0.000  0.002  0.000  0.001  0.000  0.000  0.000  0.000  0.001  0.005
    3  0.000  0.044  0.000  0.015  0.000  0.000  0.000  0.000  0.001  0.060
    4  0.000  0.044  0.000  0.015  0.000  0.000  0.000  0.000  0.001  0.060
tot    0.000  0.091  0.000  0.030  0.048  0.359  0.000  0.120  0.144  0.793
 
band    12 # energy    2.73480913 # occ.  1.00000000
 
ion      s     py     pz     px    dxy    dyz    dz2    dxz  x2-y2    tot
    1  0.000  0.002  0.000  0.005  0.000  0.018  0.513  0.055  0.000  0.593
    2  0.000  0.000  0.010  0.000  0.000  0.000  0.000  0.000  0.000  0.010
    3  0.000  0.006  0.032  0.018  0.000  0.000  0.001  0.000  0.000  0.057
    4  0.000  0.006  0.032  0.018  0.000  0.000  0.001  0.000  0.000  0.057
tot    0.001  0.014  0.074  0.041  0.001  0.018  0.515  0.055  0.000  0.718
 
band    13 # energy    3.24111899 # occ.  1.00000000
 
ion      s     py     pz     px    dxy    dyz    dz2    dxz  x2-y2    tot
    1  0.000  0.002  0.000  0.001  0.140  0.168  0.000  0.056  0.421  0.789
    2  0.000  0.000  0.000  0.000  0.001  0.005  0.000  0.002  0.002  0.010
    3  0.000  0.018  0.000  0.006  0.000  0.000  0.000  0.000  0.000  0.025
    4  0.000  0.018  0.000  0.006  0.000  0.000  0.000  0.000  0.000  0.025
tot    0.000  0.039  0.000  0.013  0.141  0.174  0.000  0.058  0.424  0.849
 
band    14 # energy    3.32203642 # occ.  1.00000000
 
ion      s     py     pz     px    dxy    dyz    dz2    dxz  x2-y2    tot
    1  0.009  0.000  0.000  0.000  0.217  0.108  0.080  0.323  0.072  0.810
    2  0.001  0.000  0.000  0.001  0.003  0.000  0.001  0.001  0.001  0.009
    3  0.003  0.001  0.011  0.002  0.001  0.000  0.001  0.000  0.000  0.017
    4  0.003  0.001  0.011  0.002  0.001  0.000  0.001  0.000  0.000  0.017
tot    0.015  0.001  0.022  0.004  0.221  0.108  0.082  0.325  0.074  0.853
 
band    15 # energy    3.76497236 # occ.  1.00000000
 
ion      s     py     pz     px    dxy    dyz    dz2    dxz  x2-y2    tot
    1  0.007  0.000  0.029  0.000  0.014  0.000  0.000  0.000  0.005  0.055
    2  0.000  0.003  0.000  0.010  0.001  0.006  0.052  0.018  0.000  0.092
    3  0.000  0.019  0.089  0.057  0.001  0.000  0.001  0.000  0.000  0.169
    4  0.000  0.019  0.089  0.057  0.001  0.000  0.001  0.000  0.000  0.169
tot    0.007  0.042  0.208  0.126  0.016  0.006  0.054  0.019  0.005  0.484
 
band    16 # energy    4.07655897 # occ.  1.00000000
 
ion      s     py     pz     px    dxy    dyz    dz2    dxz  x2-y2    tot
    1  0.000  0.002  0.000  0.005  0.273  0.030  0.149  0.090  0.091  0.641
    2  0.019  0.000  0.001  0.000  0.003  0.000  0.003  0.001  0.001  0.029
    3  0.016  0.005  0.030  0.014  0.000  0.000  0.000  0.001  0.000  0.066
    4  0.016  0.005  0.030  0.014  0.000  0.000  0.000  0.001  0.000  0.066
tot    0.051  0.011  0.061  0.034  0.277  0.031  0.152  0.092  0.092  0.802
 
band    17 # energy    4.35926024 # occ.  1.00000000
 
ion      s     py     pz     px    dxy    dyz    dz2    dxz  x2-y2    tot
    1  0.000  0.014  0.000  0.005  0.023  0.024  0.000  0.008  0.068  0.141
    2  0.000  0.001  0.000  0.000  0.012  0.089  0.000  0.030  0.035  0.167
    3  0.000  0.120  0.000  0.040  0.000  0.000  0.000  0.000  0.001  0.161
    4  0.000  0.120  0.000  0.040  0.000  0.000  0.000  0.000  0.001  0.161
tot    0.000  0.255  0.000  0.085  0.035  0.114  0.000  0.038  0.105  0.631
 
band    18 # energy    5.00118644 # occ.  1.00000000
 
ion      s     py     pz     px    dxy    dyz    dz2    dxz  x2-y2    tot
    1  0.001  0.003  0.000  0.009  0.017  0.041  0.157  0.124  0.006  0.359
    2  0.017  0.000  0.011  0.000  0.004  0.001  0.002  0.003  0.001  0.039
    3  0.008  0.015  0.069  0.044  0.000  0.000  0.000  0.001  0.000  0.139
    4  0.008  0.015  0.069  0.044  0.000  0.000  0.000  0.001  0.000  0.139
tot    0.034  0.033  0.149  0.098  0.021  0.043  0.160  0.129  0.007  0.674
 
band    19 # energy    5.57646556 # occ.  1.00000000
 
ion      s     py     pz     px    dxy    dyz    dz2    dxz  x2-y2    tot
    1  0.000  0.002  0.000  0.001  0.016  0.130  0.000  0.043  0.049  0.243
    2  0.000  0.015  0.000  0.005  0.013  0.013  0.000  0.004  0.040  0.091
    3  0.000  0.114  0.000  0.038  0.000  0.002  0.000  0.001  0.001  0.156
    4  0.000  0.114  0.000  0.038  0.000  0.002  0.000  0.001  0.001  0.156
tot    0.000  0.246  0.000  0.082  0.030  0.147  0.000  0.049  0.091  0.645
 
band    20 # energy    6.72063444 # occ.  0.00000000
 
ion      s     py     pz     px    dxy    dyz    dz2    dxz  x2-y2    tot
    1  0.022  0.000  0.005  0.001  0.003  0.002  0.000  0.005  0.001  0.039
    2  0.013  0.000  0.000  0.000  0.266  0.033  0.124  0.100  0.089  0.626
    3  0.008  0.000  0.004  0.000  0.004  0.001  0.002  0.002  0.001  0.021
    4  0.008  0.000  0.004  0.000  0.004  0.001  0.002  0.002  0.001  0.021
tot    0.050  0.001  0.013  0.002  0.277  0.036  0.128  0.108  0.092  0.707
 
band    21 # energy    7.22195610 # occ.  0.00000000
 
ion      s     py     pz     px    dxy    dyz    dz2    dxz  x2-y2    tot
    1  0.044  0.000  0.001  0.001  0.001  0.000  0.000  0.000  0.000  0.047
    2  0.000  0.000  0.000  0.000  0.183  0.082  0.163  0.246  0.061  0.735
    3  0.016  0.000  0.003  0.001  0.000  0.001  0.001  0.004  0.000  0.026
    4  0.016  0.000  0.003  0.001  0.000  0.001  0.001  0.004  0.000  0.026
tot    0.076  0.001  0.006  0.003  0.184  0.085  0.165  0.254  0.061  0.835
 
band    22 # energy    7.48775856 # occ.  0.00000000
 
ion      s     py     pz     px    dxy    dyz    dz2    dxz  x2-y2    tot
    1  0.000  0.000  0.000  0.000  0.001  0.012  0.000  0.004  0.003  0.020
    2  0.000  0.003  0.000  0.001  0.154  0.128  0.000  0.043  0.463  0.791
    3  0.000  0.020  0.000  0.007  0.000  0.000  0.000  0.000  0.001  0.027
    4  0.000  0.020  0.000  0.007  0.000  0.000  0.000  0.000  0.001  0.027
tot    0.000  0.042  0.000  0.014  0.156  0.140  0.000  0.047  0.467  0.866
 
band    23 # energy    7.70269062 # occ.  0.00000000
 
ion      s     py     pz     px    dxy    dyz    dz2    dxz  x2-y2    tot
    1  0.009  0.000  0.000  0.000  0.000  0.000  0.000  0.000  0.000  0.010
    2  0.000  0.001  0.000  0.003  0.016  0.078  0.456  0.233  0.005  0.793
    3  0.003  0.004  0.013  0.013  0.000  0.000  0.000  0.001  0.000  0.035
    4  0.003  0.004  0.013  0.013  0.000  0.000  0.000  0.001  0.000  0.035
tot    0.016  0.010  0.027  0.029  0.017  0.078  0.457  0.234  0.006  0.873
 
band    24 # energy    7.81608212 # occ.  0.00000000
 
ion      s     py     pz     px    dxy    dyz    dz2    dxz  x2-y2    tot
    1  0.000  0.017  0.000  0.006  0.002  0.002  0.000  0.001  0.005  0.032
    2  0.000  0.001  0.000  0.000  0.033  0.417  0.000  0.139  0.100  0.691
    3  0.000  0.033  0.000  0.011  0.000  0.005  0.000  0.002  0.001  0.051
    4  0.000  0.033  0.000  0.011  0.000  0.005  0.000  0.002  0.001  0.051
tot    0.000  0.083  0.000  0.028  0.036  0.428  0.000  0.143  0.108  0.825
 

 k-point    11 :   -0.23684211 0.00000000 0.50000000     weight = 0.02500000

band     1 # energy  -44.23171328 # occ.  1.00000000
 
ion      s     py     pz     px    dxy    dyz    dz2    dxz  x2-y2    tot
    1  0.000  0.244  0.000  0.751  0.000  0.000  0.000  0.000  0.000  0.995
    2  0.000  0.000  0.000  0.000  0.000  0.000  0.000  0.000  0.000  0.000
    3  0.000  0.000  0.000  0.000  0.000  0.000  0.000  0.000  0.000  0.000
    4  0.000  0.000  0.000  0.000  0.000  0.000  0.000  0.000  0.000  0.000
tot    0.000  0.244  0.000  0.751  0.000  0.000  0.000  0.000  0.000  0.995
 
band     2 # energy  -44.23138062 # occ.  1.00000000
 
ion      s     py     pz     px    dxy    dyz    dz2    dxz  x2-y2    tot
    1  0.000  0.751  0.000  0.244  0.000  0.000  0.000  0.000  0.000  0.995
    2  0.000  0.000  0.000  0.000  0.000  0.000  0.000  0.000  0.000  0.000
    3  0.000  0.000  0.000  0.000  0.000  0.000  0.000  0.000  0.000  0.000
    4  0.000  0.000  0.000  0.000  0.000  0.000  0.000  0.000  0.000  0.000
tot    0.000  0.751  0.000  0.244  0.000  0.000  0.000  0.000  0.000  0.995
 
band     3 # energy  -44.22823605 # occ.  1.00000000
 
ion      s     py     pz     px    dxy    dyz    dz2    dxz  x2-y2    tot
    1  0.000  0.000  0.995  0.000  0.000  0.000  0.000  0.000  0.000  0.995
    2  0.000  0.000  0.000  0.000  0.000  0.000  0.000  0.000  0.000  0.000
    3  0.000  0.000  0.000  0.000  0.000  0.000  0.000  0.000  0.000  0.000
    4  0.000  0.000  0.000  0.000  0.000  0.000  0.000  0.000  0.000  0.000
tot    0.000  0.000  0.995  0.000  0.000  0.000  0.000  0.000  0.000  0.995
 
band     4 # energy  -39.85052472 # occ.  1.00000000
 
ion      s     py     pz     px    dxy    dyz    dz2    dxz  x2-y2    tot
    1  0.000  0.000  0.000  0.000  0.000  0.000  0.000  0.000  0.000  0.000
    2  0.000  0.000  0.995  0.000  0.000  0.000  0.000  0.000  0.000  0.995
    3  0.000  0.000  0.000  0.000  0.000  0.000  0.000  0.000  0.000  0.000
    4  0.000  0.000  0.000  0.000  0.000  0.000  0.000  0.000  0.000  0.000
tot    0.000  0.000  0.995  0.000  0.000  0.000  0.000  0.000  0.000  0.995
 
band     5 # energy  -39.84428554 # occ.  1.00000000
 
ion      s     py     pz     px    dxy    dyz    dz2    dxz  x2-y2    tot
    1  0.000  0.000  0.000  0.000  0.000  0.000  0.000  0.000  0.000  0.000
    2  0.000  0.244  0.000  0.751  0.000  0.000  0.000  0.000  0.000  0.995
    3  0.000  0.000  0.000  0.000  0.000  0.000  0.000  0.000  0.000  0.000
    4  0.000  0.000  0.000  0.000  0.000  0.000  0.000  0.000  0.000  0.000
tot    0.000  0.244  0.000  0.751  0.000  0.000  0.000  0.000  0.000  0.995
 
band     6 # energy  -39.84378702 # occ.  1.00000000
 
ion      s     py     pz     px    dxy    dyz    dz2    dxz  x2-y2    tot
    1  0.000  0.000  0.000  0.000  0.000  0.000  0.000  0.000  0.000  0.000
    2  0.000  0.751  0.000  0.244  0.000  0.000  0.000  0.000  0.000  0.996
    3  0.000  0.000  0.000  0.000  0.000  0.000  0.000  0.000  0.000  0.000
    4  0.000  0.000  0.000  0.000  0.000  0.000  0.000  0.000  0.000  0.000
tot    0.000  0.751  0.000  0.244  0.000  0.000  0.000  0.000  0.000  0.996
 
band     7 # energy   -5.16459601 # occ.  1.00000000
 
ion      s     py     pz     px    dxy    dyz    dz2    dxz  x2-y2    tot
    1  0.021  0.001  0.000  0.002  0.000  0.000  0.000  0.000  0.000  0.024
    2  0.000  0.000  0.003  0.000  0.001  0.000  0.000  0.001  0.000  0.006
    3  0.302  0.000  0.001  0.000  0.000  0.000  0.000  0.000  0.000  0.304
    4  0.302  0.000  0.001  0.000  0.000  0.000  0.000  0.000  0.000  0.304
tot    0.625  0.001  0.005  0.003  0.001  0.001  0.000  0.002  0.000  0.638
 
band     8 # energy   -5.13710739 # occ.  1.00000000
 
ion      s     py     pz     px    dxy    dyz    dz2    dxz  x2-y2    tot
    1  0.000  0.000  0.004  0.000  0.001  0.001  0.000  0.002  0.000  0.009
    2  0.016  0.001  0.000  0.002  0.000  0.000  0.000  0.000  0.000  0.018
    3  0.305  0.000  0.001  0.000  0.000  0.000  0.000  0.000  0.000  0.307
    4  0.305  0.000  0.001  0.000  0.000  0.000  0.000  0.000  0.000  0.307
tot    0.627  0.001  0.006  0.003  0.001  0.001  0.000  0.003  0.000  0.641
 
band     9 # energy    1.83122322 # occ.  1.00000000
 
ion      s     py     pz     px    dxy    dyz    dz2    dxz  x2-y2    tot
    1  0.001  0.001  0.001  0.002  0.147  0.022  0.000  0.066  0.049  0.288
    2  0.041  0.000  0.000  0.000  0.000  0.001  0.001  0.002  0.000  0.045
    3  0.012  0.014  0.051  0.043  0.000  0.000  0.000  0.000  0.000  0.120
    4  0.012  0.014  0.051  0.043  0.000  0.000  0.000  0.000  0.000  0.120
tot    0.065  0.030  0.103  0.089  0.147  0.023  0.001  0.068  0.049  0.573
 
band    10 # energy    1.98732400 # occ.  1.00000000
 
ion      s     py     pz     px    dxy    dyz    dz2    dxz  x2-y2    tot
    1  0.078  0.000  0.000  0.000  0.008  0.009  0.024  0.026  0.003  0.148
    2  0.001  0.001  0.000  0.002  0.019  0.004  0.000  0.011  0.006  0.044
    3  0.026  0.015  0.067  0.044  0.000  0.000  0.000  0.000  0.000  0.152
    4  0.026  0.015  0.067  0.044  0.000  0.000  0.000  0.000  0.000  0.152
tot    0.131  0.030  0.135  0.090  0.027  0.012  0.024  0.037  0.009  0.495
 
band    11 # energy    2.73063620 # occ.  1.00000000
 
ion      s     py     pz     px    dxy    dyz    dz2    dxz  x2-y2    tot
    1  0.000  0.000  0.000  0.000  0.058  0.331  0.000  0.110  0.175  0.674
    2  0.000  0.002  0.000  0.001  0.000  0.000  0.000  0.000  0.001  0.004
    3  0.000  0.043  0.000  0.014  0.000  0.001  0.000  0.000  0.000  0.059
    4  0.000  0.043  0.000  0.014  0.000  0.001  0.000  0.000  0.000  0.059
tot    0.000  0.089  0.000  0.030  0.059  0.332  0.000  0.111  0.177  0.796
 
band    12 # energy    2.75241049 # occ.  1.00000000
 
ion      s     py     pz     px    dxy    dyz    dz2    dxz  x2-y2    tot
    1  0.001  0.001  0.000  0.004  0.003  0.022  0.500  0.067  0.001  0.599
    2  0.000  0.000  0.010  0.000  0.001  0.000  0.000  0.000  0.000  0.012
    3  0.000  0.008  0.020  0.025  0.000  0.000  0.001  0.000  0.000  0.056
    4  0.000  0.008  0.020  0.025  0.000  0.000  0.001  0.000  0.000  0.056
tot    0.001  0.018  0.051  0.055  0.004  0.022  0.502  0.067  0.001  0.722
 
band    13 # energy    3.23346460 # occ.  1.00000000
 
ion      s     py     pz     px    dxy    dyz    dz2    dxz  x2-y2    tot
    1  0.000  0.002  0.000  0.001  0.130  0.207  0.000  0.069  0.390  0.798
    2  0.000  0.000  0.000  0.000  0.001  0.004  0.000  0.001  0.002  0.009
    3  0.000  0.017  0.000  0.006  0.000  0.000  0.000  0.000  0.000  0.023
    4  0.000  0.017  0.000  0.006  0.000  0.000  0.000  0.000  0.000  0.023
tot    0.000  0.035  0.000  0.012  0.131  0.211  0.000  0.070  0.393  0.852
 
band    14 # energy    3.32815858 # occ.  1.00000000
 
ion      s     py     pz     px    dxy    dyz    dz2    dxz  x2-y2    tot
    1  0.009  0.000  0.000  0.000  0.233  0.099  0.089  0.296  0.078  0.804
    2  0.002  0.000  0.000  0.001  0.003  0.001  0.001  0.002  0.001  0.010
    3  0.003  0.001  0.011  0.002  0.001  0.000  0.001  0.000  0.000  0.019
    4  0.003  0.001  0.011  0.002  0.001  0.000  0.001  0.000  0.000  0.019
tot    0.017  0.002  0.023  0.005  0.237  0.099  0.091  0.298  0.079  0.851
 
band    15 # energy    3.76764167 # occ.  1.00000000
 
ion      s     py     pz     px    dxy    dyz    dz2    dxz  x2-y2    tot
    1  0.004  0.000  0.026  0.000  0.009  0.011  0.016  0.032  0.003  0.102
    2  0.004  0.003  0.000  0.009  0.001  0.003  0.055  0.010  0.000  0.087
    3  0.003  0.013  0.103  0.038  0.001  0.000  0.001  0.000  0.000  0.160
    4  0.003  0.013  0.103  0.038  0.001  0.000  0.001  0.000  0.000  0.160
tot    0.015  0.029  0.233  0.086  0.012  0.014  0.074  0.043  0.004  0.510
 
band    16 # energy    4.19784643 # occ.  1.00000000
 
ion      s     py     pz     px    dxy    dyz    dz2    dxz  x2-y2    tot
    1  0.001  0.002  0.003  0.007  0.250  0.027  0.110  0.080  0.083  0.563
    2  0.019  0.000  0.002  0.001  0.001  0.003  0.002  0.009  0.000  0.037
    3  0.015  0.014  0.011  0.041  0.001  0.000  0.000  0.001  0.000  0.082
    4  0.015  0.014  0.011  0.041  0.001  0.000  0.000  0.001  0.000  0.082
tot    0.051  0.030  0.027  0.089  0.251  0.030  0.112  0.091  0.084  0.765
 
band    17 # energy    4.40539298 # occ.  1.00000000
 
ion      s     py     pz     px    dxy    dyz    dz2    dxz  x2-y2    tot
    1  0.000  0.013  0.000  0.004  0.019  0.026  0.000  0.009  0.057  0.128
    2  0.000  0.001  0.000  0.000  0.015  0.088  0.000  0.029  0.044  0.177
    3  0.000  0.121  0.000  0.040  0.000  0.000  0.000  0.000  0.001  0.163
    4  0.000  0.121  0.000  0.040  0.000  0.000  0.000  0.000  0.001  0.163
tot    0.000  0.257  0.000  0.086  0.034  0.115  0.000  0.038  0.102  0.632
 
band    18 # energy    4.97714240 # occ.  1.00000000
 
ion      s     py     pz     px    dxy    dyz    dz2    dxz  x2-y2    tot
    1  0.003  0.003  0.000  0.009  0.014  0.037  0.166  0.110  0.005  0.346
    2  0.015  0.000  0.011  0.001  0.009  0.000  0.000  0.001  0.003  0.040
    3  0.007  0.017  0.063  0.052  0.000  0.000  0.000  0.001  0.000  0.141
    4  0.007  0.017  0.063  0.052  0.000  0.000  0.000  0.001  0.000  0.141
tot    0.032  0.038  0.136  0.114  0.023  0.038  0.167  0.113  0.008  0.668
 
band    19 # energy    5.63430174 # occ.  1.00000000
 
ion      s     py     pz     px    dxy    dyz    dz2    dxz  x2-y2    tot
    1  0.000  0.003  0.000  0.001  0.019  0.115  0.000  0.038  0.057  0.234
    2  0.000  0.014  0.000  0.005  0.014  0.018  0.000  0.006  0.042  0.099
    3  0.000  0.115  0.000  0.038  0.000  0.002  0.000  0.001  0.001  0.157
    4  0.000  0.115  0.000  0.038  0.000  0.002  0.000  0.001  0.001  0.157
tot    0.000  0.247  0.000  0.082  0.034  0.137  0.000  0.046  0.101  0.646
 
band    20 # energy    6.76175502 # occ.  0.00000000
 
ion      s     py     pz     px    dxy    dyz    dz2    dxz  x2-y2    tot
    1  0.019  0.001  0.005  0.002  0.003  0.002  0.000  0.005  0.001  0.036
    2  0.013  0.000  0.000  0.000  0.264  0.036  0.133  0.107  0.088  0.641
    3  0.007  0.000  0.004  0.000  0.004  0.001  0.002  0.002  0.001  0.020
    4  0.007  0.000  0.004  0.000  0.004  0.001  0.002  0.002  0.001  0.020
tot    0.047  0.001  0.013  0.002  0.274  0.038  0.136  0.115  0.091  0.718
 
band    21 # energy    7.22872098 # occ.  0.00000000
 
ion      s     py     pz     px    dxy    dyz    dz2    dxz  x2-y2    tot
    1  0.042  0.000  0.001  0.001  0.001  0.000  0.000  0.001  0.000  0.047
    2  0.000  0.000  0.000  0.000  0.190  0.085  0.139  0.256  0.063  0.733
    3  0.017  0.001  0.003  0.002  0.000  0.001  0.001  0.004  0.000  0.028
    4  0.017  0.001  0.003  0.002  0.000  0.001  0.001  0.004  0.000  0.028
tot    0.076  0.002  0.006  0.005  0.191  0.088  0.140  0.264  0.064  0.835
 
band    22 # energy    7.47400836 # occ.  0.00000000
 
ion      s     py     pz     px    dxy    dyz    dz2    dxz  x2-y2    tot
    1  0.000  0.000  0.000  0.000  0.002  0.012  0.000  0.004  0.005  0.023
    2  0.000  0.003  0.000  0.001  0.133  0.179  0.000  0.060  0.400  0.776
    3  0.000  0.022  0.000  0.007  0.000  0.000  0.000  0.000  0.001  0.031
    4  0.000  0.022  0.000  0.007  0.000  0.000  0.000  0.000  0.001  0.031
tot    0.000  0.048  0.000  0.016  0.136  0.191  0.000  0.064  0.407  0.862
 
band    23 # energy    7.67044325 # occ.  0.00000000
 
ion      s     py     pz     px    dxy    dyz    dz2    dxz  x2-y2    tot
    1  0.006  0.000  0.000  0.000  0.001  0.000  0.000  0.000  0.000  0.008
    2  0.000  0.001  0.000  0.003  0.017  0.073  0.465  0.220  0.006  0.785
    3  0.003  0.005  0.014  0.015  0.000  0.000  0.000  0.001  0.000  0.038
    4  0.003  0.005  0.014  0.015  0.000  0.000  0.000  0.001  0.000  0.038
tot    0.012  0.011  0.028  0.033  0.019  0.074  0.466  0.221  0.006  0.869
 
band    24 # energy    7.85252192 # occ.  0.00000000
 
ion      s     py     pz     px    dxy    dyz    dz2    dxz  x2-y2    tot
    1  0.000  0.016  0.000  0.005  0.002  0.003  0.000  0.001  0.005  0.032
    2  0.000  0.001  0.000  0.000  0.049  0.363  0.000  0.121  0.147  0.682
    3  0.000  0.036  0.000  0.012  0.000  0.004  0.000  0.001  0.001  0.055
    4  0.000  0.036  0.000  0.012  0.000  0.004  0.000  0.001  0.001  0.055
tot    0.000  0.090  0.000  0.030  0.051  0.374  0.000  0.125  0.154  0.824
 

 k-point    12 :   -0.21052632 0.00000000 0.50000000     weight = 0.02500000

band     1 # energy  -44.23163602 # occ.  1.00000000
 
ion      s     py     pz     px    dxy    dyz    dz2    dxz  x2-y2    tot
    1  0.000  0.244  0.000  0.752  0.000  0.000  0.000  0.000  0.000  0.995
    2  0.000  0.000  0.000  0.000  0.000  0.000  0.000  0.000  0.000  0.000
    3  0.000  0.000  0.000  0.000  0.000  0.000  0.000  0.000  0.000  0.000
    4  0.000  0.000  0.000  0.000  0.000  0.000  0.000  0.000  0.000  0.000
tot    0.000  0.244  0.000  0.752  0.000  0.000  0.000  0.000  0.000  0.995
 
band     2 # energy  -44.23135205 # occ.  1.00000000
 
ion      s     py     pz     px    dxy    dyz    dz2    dxz  x2-y2    tot
    1  0.000  0.752  0.000  0.244  0.000  0.000  0.000  0.000  0.000  0.995
    2  0.000  0.000  0.000  0.000  0.000  0.000  0.000  0.000  0.000  0.000
    3  0.000  0.000  0.000  0.000  0.000  0.000  0.000  0.000  0.000  0.000
    4  0.000  0.000  0.000  0.000  0.000  0.000  0.000  0.000  0.000  0.000
tot    0.000  0.752  0.000  0.244  0.000  0.000  0.000  0.000  0.000  0.995
 
band     3 # energy  -44.22824621 # occ.  1.00000000
 
ion      s     py     pz     px    dxy    dyz    dz2    dxz  x2-y2    tot
    1  0.000  0.000  0.995  0.000  0.000  0.000  0.000  0.000  0.000  0.995
    2  0.000  0.000  0.000  0.000  0.000  0.000  0.000  0.000  0.000  0.000
    3  0.000  0.000  0.000  0.000  0.000  0.000  0.000  0.000  0.000  0.000
    4  0.000  0.000  0.000  0.000  0.000  0.000  0.000  0.000  0.000  0.000
tot    0.000  0.000  0.995  0.000  0.000  0.000  0.000  0.000  0.000  0.995
 
band     4 # energy  -39.85054165 # occ.  1.00000000
 
ion      s     py     pz     px    dxy    dyz    dz2    dxz  x2-y2    tot
    1  0.000  0.000  0.000  0.000  0.000  0.000  0.000  0.000  0.000  0.000
    2  0.000  0.000  0.995  0.000  0.000  0.000  0.000  0.000  0.000  0.995
    3  0.000  0.000  0.000  0.000  0.000  0.000  0.000  0.000  0.000  0.000
    4  0.000  0.000  0.000  0.000  0.000  0.000  0.000  0.000  0.000  0.000
tot    0.000  0.000  0.995  0.000  0.000  0.000  0.000  0.000  0.000  0.995
 
band     5 # energy  -39.84417067 # occ.  1.00000000
 
ion      s     py     pz     px    dxy    dyz    dz2    dxz  x2-y2    tot
    1  0.000  0.000  0.000  0.000  0.000  0.000  0.000  0.000  0.000  0.000
    2  0.000  0.243  0.000  0.752  0.000  0.000  0.000  0.000  0.000  0.995
    3  0.000  0.000  0.000  0.000  0.000  0.000  0.000  0.000  0.000  0.000
    4  0.000  0.000  0.000  0.000  0.000  0.000  0.000  0.000  0.000  0.000
tot    0.000  0.243  0.000  0.752  0.000  0.000  0.000  0.000  0.000  0.995
 
band     6 # energy  -39.84374780 # occ.  1.00000000
 
ion      s     py     pz     px    dxy    dyz    dz2    dxz  x2-y2    tot
    1  0.000  0.000  0.000  0.000  0.000  0.000  0.000  0.000  0.000  0.000
    2  0.000  0.752  0.000  0.243  0.000  0.000  0.000  0.000  0.000  0.996
    3  0.000  0.000  0.000  0.000  0.000  0.000  0.000  0.000  0.000  0.000
    4  0.000  0.000  0.000  0.000  0.000  0.000  0.000  0.000  0.000  0.000
tot    0.000  0.752  0.000  0.243  0.000  0.000  0.000  0.000  0.000  0.996
 
band     7 # energy   -5.22691549 # occ.  1.00000000
 
ion      s     py     pz     px    dxy    dyz    dz2    dxz  x2-y2    tot
    1  0.023  0.001  0.000  0.002  0.000  0.000  0.000  0.000  0.000  0.025
    2  0.000  0.000  0.004  0.000  0.000  0.000  0.000  0.001  0.000  0.006
    3  0.299  0.000  0.001  0.000  0.000  0.000  0.000  0.000  0.000  0.301
    4  0.299  0.000  0.001  0.000  0.000  0.000  0.000  0.000  0.000  0.301
tot    0.621  0.001  0.005  0.003  0.001  0.000  0.000  0.001  0.000  0.633
 
band     8 # energy   -5.19586919 # occ.  1.00000000
 
ion      s     py     pz     px    dxy    dyz    dz2    dxz  x2-y2    tot
    1  0.000  0.000  0.004  0.000  0.001  0.001  0.000  0.002  0.000  0.008
    2  0.018  0.000  0.000  0.001  0.000  0.000  0.000  0.000  0.000  0.020
    3  0.303  0.000  0.001  0.000  0.000  0.000  0.000  0.000  0.000  0.304
    4  0.303  0.000  0.001  0.000  0.000  0.000  0.000  0.000  0.000  0.304
tot    0.623  0.001  0.006  0.002  0.001  0.001  0.000  0.002  0.000  0.636
 
band     9 # energy    1.92872285 # occ.  1.00000000
 
ion      s     py     pz     px    dxy    dyz    dz2    dxz  x2-y2    tot
    1  0.000  0.001  0.000  0.002  0.156  0.026  0.000  0.079  0.052  0.316
    2  0.039  0.000  0.000  0.000  0.000  0.000  0.001  0.001  0.000  0.043
    3  0.012  0.013  0.054  0.039  0.000  0.000  0.000  0.000  0.000  0.118
    4  0.012  0.013  0.054  0.039  0.000  0.000  0.000  0.000  0.000  0.118
tot    0.063  0.026  0.108  0.079  0.156  0.027  0.002  0.080  0.052  0.593
 
band    10 # energy    2.08925553 # occ.  1.00000000
 
ion      s     py     pz     px    dxy    dyz    dz2    dxz  x2-y2    tot
    1  0.076  0.000  0.000  0.000  0.009  0.005  0.066  0.015  0.003  0.175
    2  0.000  0.001  0.000  0.002  0.017  0.004  0.000  0.011  0.006  0.040
    3  0.026  0.010  0.082  0.030  0.000  0.000  0.000  0.000  0.000  0.149
    4  0.026  0.010  0.082  0.030  0.000  0.000  0.000  0.000  0.000  0.149
tot    0.128  0.021  0.165  0.062  0.026  0.009  0.066  0.026  0.009  0.512
 
band    11 # energy    2.73459267 # occ.  1.00000000
 
ion      s     py     pz     px    dxy    dyz    dz2    dxz  x2-y2    tot
    1  0.000  0.000  0.000  0.000  0.070  0.301  0.000  0.100  0.210  0.681
    2  0.000  0.002  0.000  0.001  0.000  0.000  0.000  0.000  0.000  0.004
    3  0.000  0.042  0.000  0.014  0.000  0.001  0.000  0.000  0.000  0.057
    4  0.000  0.042  0.000  0.014  0.000  0.001  0.000  0.000  0.000  0.057
tot    0.000  0.086  0.000  0.029  0.070  0.302  0.000  0.101  0.211  0.800
 
band    12 # energy    2.80281223 # occ.  1.00000000
 
ion      s     py     pz     px    dxy    dyz    dz2    dxz  x2-y2    tot
    1  0.003  0.001  0.000  0.004  0.013  0.029  0.454  0.087  0.004  0.595
    2  0.000  0.000  0.009  0.001  0.003  0.001  0.000  0.002  0.001  0.017
    3  0.001  0.011  0.009  0.034  0.000  0.000  0.001  0.000  0.000  0.057
    4  0.001  0.011  0.009  0.034  0.000  0.000  0.001  0.000  0.000  0.057
tot    0.006  0.024  0.026  0.072  0.017  0.030  0.457  0.089  0.006  0.726
 
band    13 # energy    3.23283700 # occ.  1.00000000
 
ion      s     py     pz     px    dxy    dyz    dz2    dxz  x2-y2    tot
    1  0.000  0.001  0.000  0.000  0.119  0.248  0.000  0.083  0.357  0.809
    2  0.000  0.000  0.000  0.000  0.001  0.003  0.000  0.001  0.002  0.008
    3  0.000  0.015  0.000  0.005  0.000  0.000  0.000  0.000  0.000  0.020
    4  0.000  0.015  0.000  0.005  0.000  0.000  0.000  0.000  0.000  0.020
tot    0.000  0.031  0.000  0.010  0.120  0.252  0.000  0.084  0.360  0.857
 
band    14 # energy    3.33507180 # occ.  1.00000000
 
ion      s     py     pz     px    dxy    dyz    dz2    dxz  x2-y2    tot
    1  0.010  0.000  0.001  0.000  0.247  0.087  0.100  0.260  0.082  0.786
    2  0.002  0.000  0.000  0.001  0.003  0.001  0.002  0.002  0.001  0.013
    3  0.004  0.001  0.012  0.003  0.001  0.000  0.001  0.000  0.000  0.022
    4  0.004  0.001  0.012  0.003  0.001  0.000  0.001  0.000  0.000  0.022
tot    0.019  0.002  0.026  0.007  0.251  0.087  0.104  0.262  0.084  0.843
 
band    15 # energy    3.69621392 # occ.  1.00000000
 
ion      s     py     pz     px    dxy    dyz    dz2    dxz  x2-y2    tot
    1  0.004  0.000  0.021  0.000  0.029  0.026  0.031  0.079  0.010  0.201
    2  0.010  0.002  0.000  0.007  0.001  0.002  0.049  0.006  0.000  0.077
    3  0.007  0.009  0.098  0.026  0.001  0.000  0.001  0.000  0.000  0.142
    4  0.007  0.009  0.098  0.026  0.001  0.000  0.001  0.000  0.000  0.142
tot    0.028  0.020  0.217  0.059  0.032  0.029  0.082  0.086  0.011  0.562
 
band    16 # energy    4.39402919 # occ.  1.00000000
 
ion      s     py     pz     px    dxy    dyz    dz2    dxz  x2-y2    tot
    1  0.000  0.003  0.007  0.008  0.194  0.018  0.094  0.054  0.065  0.443
    2  0.015  0.001  0.002  0.002  0.000  0.005  0.009  0.016  0.000  0.050
    3  0.013  0.020  0.014  0.060  0.001  0.000  0.000  0.000  0.000  0.109
    4  0.013  0.020  0.014  0.060  0.001  0.000  0.000  0.000  0.000  0.109
tot    0.042  0.043  0.037  0.130  0.195  0.023  0.104  0.070  0.065  0.710
 
band    17 # energy    4.44208607 # occ.  1.00000000
 
ion      s     py     pz     px    dxy    dyz    dz2    dxz  x2-y2    tot
    1  0.000  0.012  0.000  0.004  0.015  0.027  0.000  0.009  0.045  0.112
    2  0.000  0.001  0.000  0.000  0.018  0.086  0.000  0.029  0.054  0.188
    3  0.000  0.123  0.000  0.041  0.000  0.000  0.000  0.000  0.001  0.166
    4  0.000  0.123  0.000  0.041  0.000  0.000  0.000  0.000  0.001  0.166
tot    0.000  0.259  0.000  0.086  0.034  0.114  0.000  0.038  0.101  0.631
 
band    18 # energy    4.96565199 # occ.  1.00000000
 
ion      s     py     pz     px    dxy    dyz    dz2    dxz  x2-y2    tot
    1  0.005  0.002  0.001  0.007  0.017  0.034  0.156  0.103  0.006  0.330
    2  0.014  0.001  0.010  0.002  0.017  0.000  0.000  0.000  0.006  0.049
    3  0.007  0.020  0.053  0.060  0.000  0.000  0.000  0.001  0.000  0.142
    4  0.007  0.020  0.053  0.060  0.000  0.000  0.000  0.001  0.000  0.142
tot    0.033  0.043  0.116  0.129  0.034  0.035  0.157  0.106  0.011  0.664
 
band    19 # energy    5.70593871 # occ.  1.00000000
 
ion      s     py     pz     px    dxy    dyz    dz2    dxz  x2-y2    tot
    1  0.000  0.003  0.000  0.001  0.021  0.102  0.000  0.034  0.064  0.226
    2  0.000  0.013  0.000  0.004  0.014  0.024  0.000  0.008  0.043  0.106
    3  0.000  0.117  0.000  0.039  0.000  0.002  0.000  0.001  0.001  0.159
    4  0.000  0.117  0.000  0.039  0.000  0.002  0.000  0.001  0.001  0.159
tot    0.000  0.249  0.000  0.083  0.036  0.129  0.000  0.043  0.109  0.649
 
band    20 # energy    6.80653747 # occ.  0.00000000
 
ion      s     py     pz     px    dxy    dyz    dz2    dxz  x2-y2    tot
    1  0.014  0.001  0.005  0.002  0.002  0.001  0.001  0.004  0.001  0.031
    2  0.013  0.000  0.000  0.000  0.247  0.042  0.148  0.126  0.082  0.660
    3  0.007  0.000  0.004  0.000  0.004  0.000  0.002  0.001  0.001  0.020
    4  0.007  0.000  0.004  0.000  0.004  0.000  0.002  0.001  0.001  0.020
tot    0.042  0.001  0.013  0.003  0.257  0.044  0.152  0.133  0.086  0.730
 
band    21 # energy    7.25971789 # occ.  0.00000000
 
ion      s     py     pz     px    dxy    dyz    dz2    dxz  x2-y2    tot
    1  0.042  0.001  0.000  0.002  0.001  0.001  0.001  0.002  0.000  0.049
    2  0.000  0.000  0.001  0.000  0.210  0.081  0.116  0.243  0.070  0.721
    3  0.017  0.001  0.004  0.003  0.000  0.001  0.001  0.004  0.000  0.031
    4  0.017  0.001  0.004  0.003  0.000  0.001  0.001  0.004  0.000  0.031
tot    0.076  0.003  0.008  0.009  0.210  0.084  0.118  0.253  0.070  0.832
 
band    22 # energy    7.44745846 # occ.  0.00000000
 
ion      s     py     pz     px    dxy    dyz    dz2    dxz  x2-y2    tot
    1  0.000  0.000  0.000  0.000  0.002  0.012  0.000  0.004  0.007  0.026
    2  0.000  0.003  0.000  0.001  0.115  0.222  0.000  0.074  0.345  0.760
    3  0.000  0.025  0.000  0.008  0.000  0.000  0.000  0.000  0.001  0.035
    4  0.000  0.025  0.000  0.008  0.000  0.000  0.000  0.000  0.001  0.035
tot    0.000  0.053  0.000  0.018  0.118  0.234  0.000  0.078  0.354  0.856
 
band    23 # energy    7.63238583 # occ.  0.00000000
 
ion      s     py     pz     px    dxy    dyz    dz2    dxz  x2-y2    tot
    1  0.005  0.000  0.000  0.001  0.002  0.000  0.000  0.000  0.001  0.009
    2  0.001  0.001  0.000  0.003  0.017  0.071  0.462  0.212  0.006  0.773
    3  0.002  0.006  0.013  0.018  0.000  0.000  0.001  0.000  0.000  0.041
    4  0.002  0.006  0.013  0.018  0.000  0.000  0.001  0.000  0.000  0.041
tot    0.010  0.013  0.027  0.039  0.019  0.071  0.463  0.213  0.006  0.863
 
band    24 # energy    7.89667887 # occ.  0.00000000
 
ion      s     py     pz     px    dxy    dyz    dz2    dxz  x2-y2    tot
    1  0.000  0.016  0.000  0.005  0.001  0.003  0.000  0.001  0.004  0.031
    2  0.000  0.001  0.000  0.000  0.063  0.315  0.000  0.105  0.188  0.673
    3  0.000  0.040  0.000  0.013  0.000  0.004  0.000  0.001  0.001  0.060
    4  0.000  0.040  0.000  0.013  0.000  0.004  0.000  0.001  0.001  0.060
tot    0.000  0.097  0.000  0.032  0.065  0.327  0.000  0.109  0.194  0.824
 

 k-point    13 :   -0.18421053 0.00000000 0.50000000     weight = 0.02500000

band     1 # energy  -44.23155890 # occ.  1.00000000
 
ion      s     py     pz     px    dxy    dyz    dz2    dxz  x2-y2    tot
    1  0.000  0.242  0.000  0.753  0.000  0.000  0.000  0.000  0.000  0.995
    2  0.000  0.000  0.000  0.000  0.000  0.000  0.000  0.000  0.000  0.000
    3  0.000  0.000  0.000  0.000  0.000  0.000  0.000  0.000  0.000  0.000
    4  0.000  0.000  0.000  0.000  0.000  0.000  0.000  0.000  0.000  0.000
tot    0.000  0.242  0.000  0.753  0.000  0.000  0.000  0.000  0.000  0.995
 
band     2 # energy  -44.23132931 # occ.  1.00000000
 
ion      s     py     pz     px    dxy    dyz    dz2    dxz  x2-y2    tot
    1  0.000  0.753  0.000  0.242  0.000  0.000  0.000  0.000  0.000  0.995
    2  0.000  0.000  0.000  0.000  0.000  0.000  0.000  0.000  0.000  0.000
    3  0.000  0.000  0.000  0.000  0.000  0.000  0.000  0.000  0.000  0.000
    4  0.000  0.000  0.000  0.000  0.000  0.000  0.000  0.000  0.000  0.000
tot    0.000  0.753  0.000  0.242  0.000  0.000  0.000  0.000  0.000  0.995
 
band     3 # energy  -44.22825872 # occ.  1.00000000
 
ion      s     py     pz     px    dxy    dyz    dz2    dxz  x2-y2    tot
    1  0.000  0.000  0.995  0.000  0.000  0.000  0.000  0.000  0.000  0.995
    2  0.000  0.000  0.000  0.000  0.000  0.000  0.000  0.000  0.000  0.000
    3  0.000  0.000  0.000  0.000  0.000  0.000  0.000  0.000  0.000  0.000
    4  0.000  0.000  0.000  0.000  0.000  0.000  0.000  0.000  0.000  0.000
tot    0.000  0.000  0.995  0.000  0.000  0.000  0.000  0.000  0.000  0.995
 
band     4 # energy  -39.85056107 # occ.  1.00000000
 
ion      s     py     pz     px    dxy    dyz    dz2    dxz  x2-y2    tot
    1  0.000  0.000  0.000  0.000  0.000  0.000  0.000  0.000  0.000  0.000
    2  0.000  0.000  0.995  0.000  0.000  0.000  0.000  0.000  0.000  0.995
    3  0.000  0.000  0.000  0.000  0.000  0.000  0.000  0.000  0.000  0.000
    4  0.000  0.000  0.000  0.000  0.000  0.000  0.000  0.000  0.000  0.000
tot    0.000  0.000  0.995  0.000  0.000  0.000  0.000  0.000  0.000  0.995
 
band     5 # energy  -39.84405534 # occ.  1.00000000
 
ion      s     py     pz     px    dxy    dyz    dz2    dxz  x2-y2    tot
    1  0.000  0.000  0.000  0.000  0.000  0.000  0.000  0.000  0.000  0.000
    2  0.000  0.242  0.000  0.753  0.000  0.000  0.000  0.000  0.000  0.995
    3  0.000  0.000  0.000  0.000  0.000  0.000  0.000  0.000  0.000  0.000
    4  0.000  0.000  0.000  0.000  0.000  0.000  0.000  0.000  0.000  0.000
tot    0.000  0.242  0.000  0.753  0.000  0.000  0.000  0.000  0.000  0.995
 
band     6 # energy  -39.84371526 # occ.  1.00000000
 
ion      s     py     pz     px    dxy    dyz    dz2    dxz  x2-y2    tot
    1  0.000  0.000  0.000  0.000  0.000  0.000  0.000  0.000  0.000  0.000
    2  0.000  0.753  0.000  0.242  0.000  0.000  0.000  0.000  0.000  0.996
    3  0.000  0.000  0.000  0.000  0.000  0.000  0.000  0.000  0.000  0.000
    4  0.000  0.000  0.000  0.000  0.000  0.000  0.000  0.000  0.000  0.000
tot    0.000  0.753  0.000  0.242  0.000  0.000  0.000  0.000  0.000  0.996
 
band     7 # energy   -5.28486040 # occ.  1.00000000
 
ion      s     py     pz     px    dxy    dyz    dz2    dxz  x2-y2    tot
    1  0.024  0.000  0.000  0.001  0.000  0.000  0.000  0.000  0.000  0.026
    2  0.000  0.000  0.004  0.000  0.000  0.000  0.000  0.001  0.000  0.006
    3  0.297  0.000  0.001  0.000  0.000  0.000  0.000  0.000  0.000  0.298
    4  0.297  0.000  0.001  0.000  0.000  0.000  0.000  0.000  0.000  0.298
tot    0.618  0.001  0.006  0.002  0.000  0.000  0.000  0.001  0.000  0.628
 
band     8 # energy   -5.25049538 # occ.  1.00000000
 
ion      s     py     pz     px    dxy    dyz    dz2    dxz  x2-y2    tot
    1  0.000  0.000  0.005  0.000  0.001  0.000  0.000  0.001  0.000  0.008
    2  0.019  0.000  0.000  0.001  0.000  0.000  0.000  0.000  0.000  0.020
    3  0.300  0.000  0.001  0.000  0.000  0.000  0.000  0.000  0.000  0.302
    4  0.300  0.000  0.001  0.000  0.000  0.000  0.000  0.000  0.000  0.302
tot    0.619  0.001  0.007  0.002  0.001  0.001  0.000  0.002  0.000  0.632
 
band     9 # energy    2.02577235 # occ.  1.00000000
 
ion      s     py     pz     px    dxy    dyz    dz2    dxz  x2-y2    tot
    1  0.000  0.000  0.000  0.001  0.164  0.030  0.000  0.089  0.055  0.339
    2  0.038  0.000  0.000  0.000  0.000  0.000  0.002  0.001  0.000  0.041
    3  0.012  0.012  0.057  0.035  0.000  0.000  0.000  0.000  0.000  0.115
    4  0.012  0.012  0.057  0.035  0.000  0.000  0.000  0.000  0.000  0.115
tot    0.062  0.024  0.113  0.071  0.164  0.030  0.003  0.090  0.055  0.610
 
band    10 # energy    2.15057002 # occ.  1.00000000
 
ion      s     py     pz     px    dxy    dyz    dz2    dxz  x2-y2    tot
    1  0.070  0.000  0.000  0.000  0.007  0.002  0.127  0.007  0.002  0.217
    2  0.000  0.000  0.002  0.001  0.013  0.003  0.000  0.009  0.004  0.033
    3  0.025  0.006  0.092  0.018  0.000  0.000  0.000  0.000  0.000  0.141
    4  0.025  0.006  0.092  0.018  0.000  0.000  0.000  0.000  0.000  0.141
tot    0.120  0.012  0.186  0.037  0.020  0.005  0.128  0.016  0.007  0.532
 
band    11 # energy    2.73523127 # occ.  1.00000000
 
ion      s     py     pz     px    dxy    dyz    dz2    dxz  x2-y2    tot
    1  0.000  0.000  0.000  0.000  0.081  0.271  0.000  0.090  0.244  0.687
    2  0.000  0.002  0.000  0.001  0.000  0.000  0.000  0.000  0.000  0.003
    3  0.000  0.041  0.000  0.014  0.000  0.001  0.000  0.000  0.000  0.056
    4  0.000  0.041  0.000  0.014  0.000  0.001  0.000  0.000  0.000  0.056
tot    0.000  0.084  0.000  0.028  0.082  0.273  0.000  0.091  0.245  0.802
 
band    12 # energy    2.89179513 # occ.  1.00000000
 
ion      s     py     pz     px    dxy    dyz    dz2    dxz  x2-y2    tot
    1  0.008  0.001  0.000  0.003  0.030  0.039  0.381  0.117  0.010  0.589
    2  0.000  0.000  0.007  0.001  0.007  0.002  0.000  0.005  0.002  0.024
    3  0.003  0.013  0.002  0.040  0.000  0.000  0.001  0.000  0.000  0.059
    4  0.003  0.013  0.002  0.040  0.000  0.000  0.001  0.000  0.000  0.059
tot    0.015  0.028  0.010  0.083  0.038  0.041  0.383  0.122  0.013  0.732
 
band    13 # energy    3.23825368 # occ.  1.00000000
 
ion      s     py     pz     px    dxy    dyz    dz2    dxz  x2-y2    tot
    1  0.000  0.001  0.000  0.000  0.108  0.291  0.000  0.097  0.325  0.822
    2  0.000  0.000  0.000  0.000  0.001  0.003  0.000  0.001  0.002  0.007
    3  0.000  0.012  0.000  0.004  0.000  0.000  0.000  0.000  0.001  0.017
    4  0.000  0.012  0.000  0.004  0.000  0.000  0.000  0.000  0.001  0.017
tot    0.000  0.026  0.000  0.009  0.109  0.293  0.000  0.098  0.328  0.863
 
band    14 # energy    3.34191446 # occ.  1.00000000
 
ion      s     py     pz     px    dxy    dyz    dz2    dxz  x2-y2    tot
    1  0.011  0.000  0.002  0.000  0.262  0.067  0.114  0.200  0.087  0.742
    2  0.004  0.000  0.001  0.001  0.004  0.001  0.004  0.002  0.001  0.017
    3  0.005  0.002  0.017  0.006  0.000  0.000  0.001  0.000  0.000  0.031
    4  0.005  0.002  0.017  0.006  0.000  0.000  0.001  0.000  0.000  0.031
tot    0.024  0.004  0.037  0.012  0.267  0.068  0.119  0.203  0.089  0.822
 
band    15 # energy    3.59979309 # occ.  1.00000000
 
ion      s     py     pz     px    dxy    dyz    dz2    dxz  x2-y2    tot
    1  0.005  0.000  0.017  0.000  0.028  0.044  0.046  0.133  0.009  0.283
    2  0.014  0.002  0.000  0.005  0.001  0.001  0.041  0.004  0.000  0.069
    3  0.009  0.007  0.088  0.020  0.001  0.000  0.001  0.001  0.000  0.127
    4  0.009  0.007  0.088  0.020  0.001  0.000  0.001  0.001  0.000  0.127
tot    0.037  0.015  0.194  0.044  0.031  0.046  0.089  0.138  0.010  0.605
 
band    16 # energy    4.46938233 # occ.  1.00000000
 
ion      s     py     pz     px    dxy    dyz    dz2    dxz  x2-y2    tot
    1  0.000  0.011  0.000  0.004  0.012  0.026  0.000  0.009  0.035  0.095
    2  0.000  0.001  0.000  0.000  0.022  0.083  0.000  0.028  0.065  0.198
    3  0.000  0.125  0.000  0.042  0.000  0.000  0.000  0.000  0.001  0.168
    4  0.000  0.125  0.000  0.042  0.000  0.000  0.000  0.000  0.001  0.168
tot    0.000  0.261  0.000  0.087  0.034  0.110  0.000  0.037  0.101  0.629
 
band    17 # energy    4.59860660 # occ.  1.00000000
 
ion      s     py     pz     px    dxy    dyz    dz2    dxz  x2-y2    tot
    1  0.000  0.004  0.007  0.011  0.137  0.007  0.121  0.022  0.046  0.353
    2  0.009  0.001  0.004  0.002  0.001  0.007  0.012  0.021  0.000  0.058
    3  0.009  0.024  0.024  0.073  0.001  0.000  0.000  0.000  0.000  0.133
    4  0.009  0.024  0.024  0.073  0.001  0.000  0.000  0.000  0.000  0.133
tot    0.027  0.053  0.060  0.159  0.139  0.014  0.134  0.043  0.046  0.676
 
band    18 # energy    4.98007921 # occ.  1.00000000
 
ion      s     py     pz     px    dxy    dyz    dz2    dxz  x2-y2    tot
    1  0.006  0.001  0.003  0.003  0.038  0.036  0.109  0.108  0.013  0.318
    2  0.016  0.001  0.007  0.004  0.026  0.000  0.004  0.000  0.009  0.068
    3  0.010  0.023  0.036  0.068  0.000  0.000  0.001  0.001  0.000  0.138
    4  0.010  0.023  0.036  0.068  0.000  0.000  0.001  0.001  0.000  0.138
tot    0.042  0.047  0.081  0.142  0.064  0.037  0.114  0.111  0.021  0.662
 
band    19 # energy    5.79067153 # occ.  1.00000000
 
ion      s     py     pz     px    dxy    dyz    dz2    dxz  x2-y2    tot
    1  0.000  0.003  0.000  0.001  0.024  0.089  0.000  0.030  0.071  0.218
    2  0.000  0.012  0.000  0.004  0.014  0.030  0.000  0.010  0.042  0.112
    3  0.000  0.119  0.000  0.040  0.000  0.001  0.000  0.000  0.001  0.161
    4  0.000  0.119  0.000  0.040  0.000  0.001  0.000  0.000  0.001  0.161
tot    0.000  0.252  0.000  0.084  0.038  0.122  0.000  0.041  0.115  0.653
 
band    20 # energy    6.85002563 # occ.  0.00000000
 
ion      s     py     pz     px    dxy    dyz    dz2    dxz  x2-y2    tot
    1  0.009  0.001  0.004  0.003  0.002  0.001  0.001  0.003  0.001  0.024
    2  0.013  0.000  0.000  0.000  0.220  0.052  0.167  0.156  0.073  0.681
    3  0.007  0.000  0.004  0.001  0.004  0.000  0.002  0.001  0.001  0.019
    4  0.007  0.000  0.004  0.001  0.004  0.000  0.002  0.001  0.001  0.019
tot    0.035  0.001  0.013  0.004  0.229  0.054  0.171  0.161  0.076  0.743
 
band    21 # energy    7.31981702 # occ.  0.00000000
 
ion      s     py     pz     px    dxy    dyz    dz2    dxz  x2-y2    tot
    1  0.040  0.001  0.000  0.004  0.000  0.001  0.002  0.003  0.000  0.051
    2  0.000  0.000  0.001  0.000  0.241  0.068  0.103  0.204  0.080  0.700
    3  0.017  0.002  0.005  0.007  0.000  0.001  0.001  0.004  0.000  0.037
    4  0.017  0.002  0.005  0.007  0.000  0.001  0.001  0.004  0.000  0.037
tot    0.074  0.006  0.012  0.018  0.242  0.072  0.107  0.215  0.081  0.826
 
band    22 # energy    7.40851896 # occ.  0.00000000
 
ion      s     py     pz     px    dxy    dyz    dz2    dxz  x2-y2    tot
    1  0.000  0.000  0.000  0.000  0.003  0.011  0.000  0.004  0.009  0.028
    2  0.000  0.003  0.000  0.001  0.100  0.255  0.000  0.085  0.300  0.745
    3  0.000  0.027  0.000  0.009  0.000  0.000  0.000  0.000  0.001  0.038
    4  0.000  0.027  0.000  0.009  0.000  0.000  0.000  0.000  0.001  0.038
tot    0.000  0.057  0.000  0.019  0.104  0.267  0.000  0.089  0.312  0.849
 
band    23 # energy    7.58826562 # occ.  0.00000000
 
ion      s     py     pz     px    dxy    dyz    dz2    dxz  x2-y2    tot
    1  0.004  0.000  0.000  0.001  0.003  0.000  0.000  0.000  0.001  0.011
    2  0.002  0.001  0.000  0.002  0.013  0.073  0.443  0.218  0.004  0.756
    3  0.002  0.007  0.013  0.020  0.000  0.000  0.001  0.000  0.000  0.044
    4  0.002  0.007  0.013  0.020  0.000  0.000  0.001  0.000  0.000  0.044
tot    0.011  0.015  0.025  0.044  0.017  0.073  0.445  0.219  0.006  0.855
 
band    24 # energy    7.94609892 # occ.  0.00000000
 
ion      s     py     pz     px    dxy    dyz    dz2    dxz  x2-y2    tot
    1  0.000  0.015  0.000  0.005  0.001  0.004  0.000  0.001  0.004  0.030
    2  0.000  0.002  0.000  0.001  0.073  0.278  0.000  0.093  0.218  0.664
    3  0.000  0.044  0.000  0.015  0.000  0.004  0.000  0.001  0.001  0.066
    4  0.000  0.044  0.000  0.015  0.000  0.004  0.000  0.001  0.001  0.066
tot    0.000  0.105  0.000  0.035  0.074  0.290  0.000  0.097  0.223  0.825
 

 k-point    14 :   -0.15789474 0.00000000 0.50000000     weight = 0.02500000

band     1 # energy  -44.23147672 # occ.  1.00000000
 
ion      s     py     pz     px    dxy    dyz    dz2    dxz  x2-y2    tot
    1  0.000  0.240  0.000  0.755  0.000  0.000  0.000  0.000  0.000  0.995
    2  0.000  0.000  0.000  0.000  0.000  0.000  0.000  0.000  0.000  0.000
    3  0.000  0.000  0.000  0.000  0.000  0.000  0.000  0.000  0.000  0.000
    4  0.000  0.000  0.000  0.000  0.000  0.000  0.000  0.000  0.000  0.000
tot    0.000  0.240  0.000  0.755  0.000  0.000  0.000  0.000  0.000  0.995
 
band     2 # energy  -44.23130360 # occ.  1.00000000
 
ion      s     py     pz     px    dxy    dyz    dz2    dxz  x2-y2    tot
    1  0.000  0.755  0.000  0.240  0.000  0.000  0.000  0.000  0.000  0.995
    2  0.000  0.000  0.000  0.000  0.000  0.000  0.000  0.000  0.000  0.000
    3  0.000  0.000  0.000  0.000  0.000  0.000  0.000  0.000  0.000  0.000
    4  0.000  0.000  0.000  0.000  0.000  0.000  0.000  0.000  0.000  0.000
tot    0.000  0.755  0.000  0.240  0.000  0.000  0.000  0.000  0.000  0.995
 
band     3 # energy  -44.22825957 # occ.  1.00000000
 
ion      s     py     pz     px    dxy    dyz    dz2    dxz  x2-y2    tot
    1  0.000  0.000  0.995  0.000  0.000  0.000  0.000  0.000  0.000  0.995
    2  0.000  0.000  0.000  0.000  0.000  0.000  0.000  0.000  0.000  0.000
    3  0.000  0.000  0.000  0.000  0.000  0.000  0.000  0.000  0.000  0.000
    4  0.000  0.000  0.000  0.000  0.000  0.000  0.000  0.000  0.000  0.000
tot    0.000  0.000  0.995  0.000  0.000  0.000  0.000  0.000  0.000  0.995
 
band     4 # energy  -39.85056706 # occ.  1.00000000
 
ion      s     py     pz     px    dxy    dyz    dz2    dxz  x2-y2    tot
    1  0.000  0.000  0.000  0.000  0.000  0.000  0.000  0.000  0.000  0.000
    2  0.000  0.000  0.995  0.000  0.000  0.000  0.000  0.000  0.000  0.995
    3  0.000  0.000  0.000  0.000  0.000  0.000  0.000  0.000  0.000  0.000
    4  0.000  0.000  0.000  0.000  0.000  0.000  0.000  0.000  0.000  0.000
tot    0.000  0.000  0.995  0.000  0.000  0.000  0.000  0.000  0.000  0.995
 
band     5 # energy  -39.84393520 # occ.  1.00000000
 
ion      s     py     pz     px    dxy    dyz    dz2    dxz  x2-y2    tot
    1  0.000  0.000  0.000  0.000  0.000  0.000  0.000  0.000  0.000  0.000
    2  0.000  0.240  0.000  0.755  0.000  0.000  0.000  0.000  0.000  0.995
    3  0.000  0.000  0.000  0.000  0.000  0.000  0.000  0.000  0.000  0.000
    4  0.000  0.000  0.000  0.000  0.000  0.000  0.000  0.000  0.000  0.000
tot    0.000  0.240  0.000  0.755  0.000  0.000  0.000  0.000  0.000  0.996
 
band     6 # energy  -39.84367878 # occ.  1.00000000
 
ion      s     py     pz     px    dxy    dyz    dz2    dxz  x2-y2    tot
    1  0.000  0.000  0.000  0.000  0.000  0.000  0.000  0.000  0.000  0.000
    2  0.000  0.756  0.000  0.240  0.000  0.000  0.000  0.000  0.000  0.996
    3  0.000  0.000  0.000  0.000  0.000  0.000  0.000  0.000  0.000  0.000
    4  0.000  0.000  0.000  0.000  0.000  0.000  0.000  0.000  0.000  0.000
tot    0.000  0.756  0.000  0.240  0.000  0.000  0.000  0.000  0.000  0.996
 
band     7 # energy   -5.33723644 # occ.  1.00000000
 
ion      s     py     pz     px    dxy    dyz    dz2    dxz  x2-y2    tot
    1  0.026  0.000  0.000  0.001  0.000  0.000  0.000  0.000  0.000  0.027
    2  0.000  0.000  0.004  0.000  0.000  0.000  0.000  0.001  0.000  0.005
    3  0.294  0.000  0.001  0.000  0.000  0.000  0.000  0.000  0.000  0.296
    4  0.294  0.000  0.001  0.000  0.000  0.000  0.000  0.000  0.000  0.296
tot    0.615  0.001  0.006  0.002  0.000  0.000  0.000  0.001  0.000  0.625
 
band     8 # energy   -5.29989818 # occ.  1.00000000
 
ion      s     py     pz     px    dxy    dyz    dz2    dxz  x2-y2    tot
    1  0.000  0.000  0.005  0.000  0.000  0.000  0.000  0.001  0.000  0.007
    2  0.020  0.000  0.000  0.001  0.000  0.000  0.000  0.000  0.000  0.021
    3  0.298  0.000  0.001  0.000  0.000  0.000  0.000  0.000  0.000  0.300
    4  0.298  0.000  0.001  0.000  0.000  0.000  0.000  0.000  0.000  0.300
tot    0.617  0.000  0.007  0.001  0.000  0.000  0.000  0.001  0.000  0.628
 
band     9 # energy    2.12299677 # occ.  1.00000000
 
ion      s     py     pz     px    dxy    dyz    dz2    dxz  x2-y2    tot
    1  0.000  0.000  0.000  0.001  0.169  0.032  0.001  0.097  0.056  0.357
    2  0.036  0.000  0.000  0.000  0.000  0.000  0.004  0.000  0.000  0.040
    3  0.012  0.010  0.059  0.031  0.000  0.000  0.000  0.000  0.000  0.113
    4  0.012  0.010  0.059  0.031  0.000  0.000  0.000  0.000  0.000  0.113
tot    0.060  0.021  0.118  0.063  0.169  0.032  0.005  0.097  0.056  0.623
 
band    10 # energy    2.17716219 # occ.  1.00000000
 
ion      s     py     pz     px    dxy    dyz    dz2    dxz  x2-y2    tot
    1  0.063  0.000  0.000  0.000  0.007  0.000  0.184  0.001  0.002  0.259
    2  0.000  0.000  0.003  0.000  0.009  0.002  0.000  0.007  0.003  0.025
    3  0.023  0.003  0.096  0.009  0.000  0.000  0.000  0.000  0.000  0.133
    4  0.023  0.003  0.096  0.009  0.000  0.000  0.000  0.000  0.000  0.133
tot    0.110  0.007  0.196  0.020  0.016  0.003  0.185  0.008  0.005  0.550
 
band    11 # energy    2.73323924 # occ.  1.00000000
 
ion      s     py     pz     px    dxy    dyz    dz2    dxz  x2-y2    tot
    1  0.000  0.000  0.000  0.000  0.092  0.244  0.000  0.081  0.275  0.692
    2  0.000  0.001  0.000  0.000  0.000  0.000  0.000  0.000  0.000  0.003
    3  0.000  0.040  0.000  0.013  0.000  0.001  0.000  0.000  0.000  0.055
    4  0.000  0.040  0.000  0.013  0.000  0.001  0.000  0.000  0.000  0.055
tot    0.000  0.081  0.000  0.027  0.092  0.246  0.000  0.082  0.276  0.804
 
band    12 # energy    3.00741834 # occ.  1.00000000
 
ion      s     py     pz     px    dxy    dyz    dz2    dxz  x2-y2    tot
    1  0.011  0.001  0.000  0.002  0.060  0.055  0.293  0.164  0.020  0.605
    2  0.000  0.000  0.004  0.001  0.010  0.002  0.000  0.006  0.003  0.028
    3  0.005  0.013  0.000  0.039  0.001  0.000  0.001  0.000  0.000  0.058
    4  0.005  0.013  0.000  0.039  0.001  0.000  0.001  0.000  0.000  0.058
tot    0.021  0.027  0.005  0.080  0.071  0.057  0.294  0.170  0.024  0.749
 
band    13 # energy    3.24817779 # occ.  1.00000000
 
ion      s     py     pz     px    dxy    dyz    dz2    dxz  x2-y2    tot
    1  0.000  0.001  0.000  0.000  0.099  0.330  0.000  0.110  0.297  0.837
    2  0.000  0.000  0.000  0.000  0.001  0.002  0.000  0.001  0.002  0.006
    3  0.000  0.010  0.000  0.003  0.000  0.000  0.000  0.000  0.001  0.014
    4  0.000  0.010  0.000  0.003  0.000  0.000  0.000  0.000  0.001  0.014
tot    0.000  0.021  0.000  0.007  0.100  0.332  0.000  0.111  0.300  0.871
 
band    14 # energy    3.34170171 # occ.  1.00000000
 
ion      s     py     pz     px    dxy    dyz    dz2    dxz  x2-y2    tot
    1  0.010  0.000  0.005  0.000  0.278  0.029  0.110  0.086  0.093  0.609
    2  0.009  0.001  0.000  0.002  0.004  0.001  0.012  0.002  0.001  0.031
    3  0.007  0.004  0.035  0.011  0.000  0.000  0.001  0.000  0.000  0.058
    4  0.007  0.004  0.035  0.011  0.000  0.000  0.001  0.000  0.000  0.058
tot    0.032  0.008  0.076  0.023  0.282  0.029  0.124  0.088  0.094  0.756
 
band    15 # energy    3.50597421 # occ.  1.00000000
 
ion      s     py     pz     px    dxy    dyz    dz2    dxz  x2-y2    tot
    1  0.009  0.000  0.012  0.000  0.005  0.073  0.096  0.219  0.002  0.415
    2  0.013  0.001  0.000  0.003  0.003  0.002  0.029  0.005  0.001  0.055
    3  0.010  0.005  0.068  0.016  0.001  0.000  0.001  0.000  0.000  0.101
    4  0.010  0.005  0.068  0.016  0.001  0.000  0.001  0.000  0.000  0.101
tot    0.042  0.011  0.148  0.034  0.009  0.075  0.126  0.224  0.003  0.673
 
band    16 # energy    4.48821505 # occ.  1.00000000
 
ion      s     py     pz     px    dxy    dyz    dz2    dxz  x2-y2    tot
    1  0.000  0.010  0.000  0.003  0.008  0.023  0.000  0.008  0.025  0.077
    2  0.000  0.001  0.000  0.000  0.025  0.080  0.000  0.027  0.075  0.208
    3  0.000  0.126  0.000  0.042  0.000  0.001  0.000  0.000  0.001  0.170
    4  0.000  0.126  0.000  0.042  0.000  0.001  0.000  0.000  0.001  0.170
tot    0.000  0.264  0.000  0.088  0.034  0.104  0.000  0.035  0.101  0.626
 
band    17 # energy    4.72306285 # occ.  1.00000000
 
ion      s     py     pz     px    dxy    dyz    dz2    dxz  x2-y2    tot
    1  0.003  0.004  0.003  0.013  0.058  0.000  0.180  0.000  0.019  0.280
    2  0.002  0.000  0.008  0.000  0.016  0.008  0.007  0.025  0.005  0.071
    3  0.004  0.027  0.041  0.081  0.000  0.000  0.000  0.000  0.000  0.154
    4  0.004  0.027  0.041  0.081  0.000  0.000  0.000  0.000  0.000  0.154
tot    0.011  0.058  0.093  0.174  0.075  0.008  0.188  0.025  0.025  0.658
 
band    18 # energy    5.08674832 # occ.  1.00000000
 
ion      s     py     pz     px    dxy    dyz    dz2    dxz  x2-y2    tot
    1  0.005  0.000  0.008  0.000  0.091  0.037  0.029  0.110  0.030  0.309
    2  0.021  0.002  0.002  0.006  0.024  0.001  0.017  0.004  0.008  0.086
    3  0.014  0.026  0.011  0.078  0.000  0.000  0.001  0.001  0.000  0.132
    4  0.014  0.026  0.011  0.078  0.000  0.000  0.001  0.001  0.000  0.132
tot    0.055  0.054  0.031  0.163  0.116  0.039  0.048  0.116  0.039  0.660
 
band    19 # energy    5.88658860 # occ.  1.00000000
 
ion      s     py     pz     px    dxy    dyz    dz2    dxz  x2-y2    tot
    1  0.000  0.003  0.000  0.001  0.025  0.079  0.000  0.026  0.076  0.212
    2  0.000  0.011  0.000  0.004  0.013  0.036  0.000  0.012  0.040  0.116
    3  0.000  0.121  0.000  0.040  0.000  0.001  0.000  0.000  0.001  0.165
    4  0.000  0.121  0.000  0.040  0.000  0.001  0.000  0.000  0.001  0.165
tot    0.000  0.257  0.000  0.086  0.040  0.117  0.000  0.039  0.119  0.658
 
band    20 # energy    6.88782371 # occ.  0.00000000
 
ion      s     py     pz     px    dxy    dyz    dz2    dxz  x2-y2    tot
    1  0.005  0.001  0.004  0.003  0.001  0.001  0.001  0.002  0.000  0.018
    2  0.012  0.000  0.000  0.000  0.192  0.063  0.184  0.188  0.064  0.703
    3  0.006  0.000  0.004  0.000  0.003  0.000  0.002  0.001  0.001  0.018
    4  0.006  0.000  0.004  0.000  0.003  0.000  0.002  0.001  0.001  0.018
tot    0.030  0.001  0.012  0.003  0.200  0.064  0.188  0.191  0.067  0.756
 
band    21 # energy    7.35798953 # occ.  0.00000000
 
ion      s     py     pz     px    dxy    dyz    dz2    dxz  x2-y2    tot
    1  0.000  0.000  0.000  0.000  0.004  0.011  0.000  0.004  0.011  0.029
    2  0.000  0.003  0.000  0.001  0.089  0.279  0.000  0.093  0.267  0.731
    3  0.000  0.028  0.000  0.009  0.001  0.000  0.000  0.000  0.002  0.040
    4  0.000  0.028  0.000  0.009  0.001  0.000  0.000  0.000  0.002  0.040
tot    0.000  0.060  0.000  0.020  0.094  0.291  0.000  0.097  0.281  0.841
 
band    22 # energy    7.40631986 # occ.  0.00000000
 
ion      s     py     pz     px    dxy    dyz    dz2    dxz  x2-y2    tot
    1  0.032  0.002  0.000  0.005  0.000  0.001  0.004  0.004  0.000  0.048
    2  0.000  0.000  0.002  0.001  0.280  0.036  0.153  0.109  0.093  0.676
    3  0.014  0.005  0.008  0.014  0.000  0.001  0.001  0.004  0.000  0.047
    4  0.014  0.005  0.008  0.014  0.000  0.001  0.001  0.004  0.000  0.047
tot    0.061  0.012  0.018  0.035  0.281  0.040  0.158  0.120  0.093  0.818
 
band    23 # energy    7.54185993 # occ.  0.00000000
 
ion      s     py     pz     px    dxy    dyz    dz2    dxz  x2-y2    tot
    1  0.008  0.001  0.000  0.002  0.005  0.000  0.001  0.000  0.002  0.019
    2  0.003  0.001  0.000  0.002  0.000  0.092  0.360  0.275  0.000  0.732
    3  0.005  0.007  0.010  0.021  0.000  0.000  0.001  0.001  0.000  0.046
    4  0.005  0.007  0.010  0.021  0.000  0.000  0.001  0.001  0.000  0.046
tot    0.021  0.015  0.021  0.046  0.006  0.092  0.362  0.277  0.002  0.844
 
band    24 # energy    7.99800280 # occ.  0.00000000
 
ion      s     py     pz     px    dxy    dyz    dz2    dxz  x2-y2    tot
    1  0.000  0.015  0.000  0.005  0.001  0.004  0.000  0.001  0.003  0.028
    2  0.000  0.002  0.000  0.001  0.080  0.250  0.000  0.083  0.240  0.656
    3  0.000  0.048  0.000  0.016  0.000  0.004  0.000  0.001  0.001  0.071
    4  0.000  0.048  0.000  0.016  0.000  0.004  0.000  0.001  0.001  0.071
tot    0.000  0.113  0.000  0.038  0.081  0.262  0.000  0.087  0.244  0.826
 

 k-point    15 :   -0.13157895 0.00000000 0.50000000     weight = 0.02500000

band     1 # energy  -44.23140926 # occ.  1.00000000
 
ion      s     py     pz     px    dxy    dyz    dz2    dxz  x2-y2    tot
    1  0.000  0.237  0.000  0.758  0.000  0.000  0.000  0.000  0.000  0.995
    2  0.000  0.000  0.000  0.000  0.000  0.000  0.000  0.000  0.000  0.000
    3  0.000  0.000  0.000  0.000  0.000  0.000  0.000  0.000  0.000  0.000
    4  0.000  0.000  0.000  0.000  0.000  0.000  0.000  0.000  0.000  0.000
tot    0.000  0.237  0.000  0.758  0.000  0.000  0.000  0.000  0.000  0.995
 
band     2 # energy  -44.23128182 # occ.  1.00000000
 
ion      s     py     pz     px    dxy    dyz    dz2    dxz  x2-y2    tot
    1  0.000  0.758  0.000  0.237  0.000  0.000  0.000  0.000  0.000  0.995
    2  0.000  0.000  0.000  0.000  0.000  0.000  0.000  0.000  0.000  0.000
    3  0.000  0.000  0.000  0.000  0.000  0.000  0.000  0.000  0.000  0.000
    4  0.000  0.000  0.000  0.000  0.000  0.000  0.000  0.000  0.000  0.000
tot    0.000  0.758  0.000  0.237  0.000  0.000  0.000  0.000  0.000  0.995
 
band     3 # energy  -44.22826996 # occ.  1.00000000
 
ion      s     py     pz     px    dxy    dyz    dz2    dxz  x2-y2    tot
    1  0.000  0.000  0.995  0.000  0.000  0.000  0.000  0.000  0.000  0.995
    2  0.000  0.000  0.000  0.000  0.000  0.000  0.000  0.000  0.000  0.000
    3  0.000  0.000  0.000  0.000  0.000  0.000  0.000  0.000  0.000  0.000
    4  0.000  0.000  0.000  0.000  0.000  0.000  0.000  0.000  0.000  0.000
tot    0.000  0.000  0.995  0.000  0.000  0.000  0.000  0.000  0.000  0.995
 
band     4 # energy  -39.85058335 # occ.  1.00000000
 
ion      s     py     pz     px    dxy    dyz    dz2    dxz  x2-y2    tot
    1  0.000  0.000  0.000  0.000  0.000  0.000  0.000  0.000  0.000  0.000
    2  0.000  0.000  0.995  0.000  0.000  0.000  0.000  0.000  0.000  0.995
    3  0.000  0.000  0.000  0.000  0.000  0.000  0.000  0.000  0.000  0.000
    4  0.000  0.000  0.000  0.000  0.000  0.000  0.000  0.000  0.000  0.000
tot    0.000  0.000  0.995  0.000  0.000  0.000  0.000  0.000  0.000  0.995
 
band     5 # energy  -39.84383595 # occ.  1.00000000
 
ion      s     py     pz     px    dxy    dyz    dz2    dxz  x2-y2    tot
    1  0.000  0.000  0.000  0.000  0.000  0.000  0.000  0.000  0.000  0.000
    2  0.000  0.237  0.000  0.759  0.000  0.000  0.000  0.000  0.000  0.995
    3  0.000  0.000  0.000  0.000  0.000  0.000  0.000  0.000  0.000  0.000
    4  0.000  0.000  0.000  0.000  0.000  0.000  0.000  0.000  0.000  0.000
tot    0.000  0.237  0.000  0.759  0.000  0.000  0.000  0.000  0.000  0.996
 
band     6 # energy  -39.84364834 # occ.  1.00000000
 
ion      s     py     pz     px    dxy    dyz    dz2    dxz  x2-y2    tot
    1  0.000  0.000  0.000  0.000  0.000  0.000  0.000  0.000  0.000  0.000
    2  0.000  0.759  0.000  0.237  0.000  0.000  0.000  0.000  0.000  0.996
    3  0.000  0.000  0.000  0.000  0.000  0.000  0.000  0.000  0.000  0.000
    4  0.000  0.000  0.000  0.000  0.000  0.000  0.000  0.000  0.000  0.000
tot    0.000  0.759  0.000  0.237  0.000  0.000  0.000  0.000  0.000  0.996
 
band     7 # energy   -5.38307038 # occ.  1.00000000
 
ion      s     py     pz     px    dxy    dyz    dz2    dxz  x2-y2    tot
    1  0.027  0.000  0.000  0.001  0.000  0.000  0.000  0.000  0.000  0.028
    2  0.000  0.000  0.004  0.000  0.000  0.000  0.000  0.000  0.000  0.005
    3  0.293  0.000  0.001  0.000  0.000  0.000  0.000  0.000  0.000  0.294
    4  0.293  0.000  0.001  0.000  0.000  0.000  0.000  0.000  0.000  0.294
tot    0.612  0.000  0.007  0.001  0.000  0.000  0.000  0.000  0.000  0.621
 
band     8 # energy   -5.34316528 # occ.  1.00000000
 
ion      s     py     pz     px    dxy    dyz    dz2    dxz  x2-y2    tot
    1  0.000  0.000  0.005  0.000  0.000  0.000  0.000  0.001  0.000  0.007
    2  0.021  0.000  0.000  0.001  0.000  0.000  0.000  0.000  0.000  0.022
    3  0.296  0.000  0.001  0.000  0.000  0.000  0.000  0.000  0.000  0.298
    4  0.296  0.000  0.001  0.000  0.000  0.000  0.000  0.000  0.000  0.298
tot    0.614  0.000  0.008  0.001  0.000  0.000  0.000  0.001  0.000  0.625
 
band     9 # energy    2.18165238 # occ.  1.00000000
 
ion      s     py     pz     px    dxy    dyz    dz2    dxz  x2-y2    tot
    1  0.058  0.000  0.000  0.001  0.000  0.001  0.227  0.004  0.000  0.291
    2  0.000  0.000  0.005  0.000  0.006  0.001  0.000  0.004  0.002  0.019
    3  0.021  0.002  0.097  0.005  0.000  0.000  0.001  0.000  0.000  0.126
    4  0.021  0.002  0.097  0.005  0.000  0.000  0.001  0.000  0.000  0.126
tot    0.101  0.004  0.198  0.011  0.006  0.003  0.228  0.008  0.002  0.561
 
band    10 # energy    2.22178744 # occ.  1.00000000
 
ion      s     py     pz     px    dxy    dyz    dz2    dxz  x2-y2    tot
    1  0.001  0.000  0.001  0.000  0.180  0.033  0.002  0.098  0.060  0.373
    2  0.034  0.000  0.000  0.000  0.000  0.000  0.005  0.001  0.000  0.040
    3  0.012  0.009  0.061  0.028  0.000  0.000  0.000  0.000  0.000  0.111
    4  0.012  0.009  0.061  0.028  0.000  0.000  0.000  0.000  0.000  0.111
tot    0.059  0.019  0.123  0.056  0.180  0.033  0.007  0.099  0.060  0.634
 
band    11 # energy    2.72954306 # occ.  1.00000000
 
ion      s     py     pz     px    dxy    dyz    dz2    dxz  x2-y2    tot
    1  0.000  0.000  0.000  0.000  0.100  0.221  0.000  0.074  0.301  0.696
    2  0.000  0.001  0.000  0.000  0.000  0.000  0.000  0.000  0.000  0.002
    3  0.000  0.039  0.000  0.013  0.000  0.001  0.000  0.000  0.000  0.053
    4  0.000  0.039  0.000  0.013  0.000  0.001  0.000  0.000  0.000  0.053
tot    0.000  0.079  0.000  0.026  0.101  0.223  0.000  0.074  0.302  0.805
 
band    12 # energy    3.12419304 # occ.  1.00000000
 
ion      s     py     pz     px    dxy    dyz    dz2    dxz  x2-y2    tot
    1  0.010  0.000  0.000  0.001  0.122  0.079  0.185  0.237  0.041  0.675
    2  0.000  0.000  0.002  0.001  0.009  0.002  0.000  0.006  0.003  0.023
    3  0.004  0.010  0.001  0.029  0.001  0.000  0.000  0.000  0.000  0.046
    4  0.004  0.010  0.001  0.029  0.001  0.000  0.000  0.000  0.000  0.046
tot    0.019  0.020  0.004  0.060  0.132  0.081  0.186  0.243  0.044  0.790
 
band    13 # energy    3.26075598 # occ.  1.00000000
 
ion      s     py     pz     px    dxy    dyz    dz2    dxz  x2-y2    tot
    1  0.000  0.000  0.000  0.000  0.091  0.365  0.000  0.122  0.273  0.851
    2  0.000  0.000  0.000  0.000  0.001  0.001  0.000  0.000  0.002  0.005
    3  0.000  0.007  0.000  0.002  0.000  0.000  0.000  0.000  0.001  0.011
    4  0.000  0.007  0.000  0.002  0.000  0.000  0.000  0.000  0.001  0.011
tot    0.000  0.016  0.000  0.005  0.092  0.367  0.000  0.122  0.276  0.878
 
band    14 # energy    3.29915915 # occ.  1.00000000
 
ion      s     py     pz     px    dxy    dyz    dz2    dxz  x2-y2    tot
    1  0.004  0.000  0.012  0.000  0.217  0.001  0.045  0.002  0.072  0.353
    2  0.021  0.001  0.000  0.003  0.002  0.000  0.029  0.000  0.001  0.057
    3  0.010  0.006  0.075  0.017  0.000  0.000  0.001  0.001  0.000  0.110
    4  0.010  0.006  0.075  0.017  0.000  0.000  0.001  0.001  0.000  0.110
tot    0.045  0.012  0.162  0.037  0.219  0.001  0.076  0.004  0.073  0.631
 
band    15 # energy    3.46598426 # occ.  1.00000000
 
ion      s     py     pz     px    dxy    dyz    dz2    dxz  x2-y2    tot
    1  0.022  0.000  0.003  0.000  0.019  0.081  0.247  0.243  0.006  0.622
    2  0.004  0.000  0.000  0.000  0.009  0.003  0.008  0.008  0.003  0.034
    3  0.011  0.005  0.030  0.014  0.001  0.000  0.000  0.000  0.000  0.061
    4  0.011  0.005  0.030  0.014  0.001  0.000  0.000  0.000  0.000  0.061
tot    0.048  0.010  0.063  0.030  0.029  0.084  0.256  0.251  0.010  0.779
 
band    16 # energy    4.50008955 # occ.  1.00000000
 
ion      s     py     pz     px    dxy    dyz    dz2    dxz  x2-y2    tot
    1  0.000  0.009  0.000  0.003  0.006  0.019  0.000  0.006  0.017  0.060
    2  0.000  0.001  0.000  0.000  0.028  0.078  0.000  0.026  0.085  0.217
    3  0.000  0.128  0.000  0.043  0.000  0.001  0.000  0.000  0.001  0.172
    4  0.000  0.128  0.000  0.043  0.000  0.001  0.000  0.000  0.001  0.172
tot    0.000  0.266  0.000  0.089  0.034  0.098  0.000  0.033  0.103  0.622
 
band    17 # energy    4.73207034 # occ.  1.00000000
 
ion      s     py     pz     px    dxy    dyz    dz2    dxz  x2-y2    tot
    1  0.006  0.004  0.001  0.011  0.020  0.002  0.180  0.005  0.007  0.234
    2  0.000  0.000  0.007  0.000  0.038  0.010  0.002  0.029  0.013  0.098
    3  0.002  0.029  0.041  0.087  0.000  0.000  0.000  0.000  0.000  0.160
    4  0.002  0.029  0.041  0.087  0.000  0.000  0.000  0.000  0.000  0.160
tot    0.010  0.061  0.090  0.184  0.058  0.011  0.182  0.034  0.019  0.651
 
band    18 # energy    5.30973645 # occ.  1.00000000
 
ion      s     py     pz     px    dxy    dyz    dz2    dxz  x2-y2    tot
    1  0.002  0.000  0.010  0.001  0.110  0.030  0.003  0.089  0.037  0.282
    2  0.019  0.002  0.000  0.007  0.017  0.003  0.030  0.010  0.006  0.095
    3  0.015  0.030  0.002  0.090  0.001  0.000  0.001  0.001  0.000  0.140
    4  0.015  0.030  0.002  0.090  0.001  0.000  0.001  0.001  0.000  0.140
tot    0.052  0.063  0.014  0.188  0.128  0.034  0.035  0.101  0.043  0.656
 
band    19 # energy    5.99066409 # occ.  1.00000000
 
ion      s     py     pz     px    dxy    dyz    dz2    dxz  x2-y2    tot
    1  0.000  0.003  0.000  0.001  0.027  0.072  0.000  0.024  0.081  0.208
    2  0.000  0.011  0.000  0.004  0.012  0.039  0.000  0.013  0.037  0.116
    3  0.000  0.125  0.000  0.042  0.000  0.001  0.000  0.000  0.001  0.170
    4  0.000  0.125  0.000  0.042  0.000  0.001  0.000  0.000  0.001  0.170
tot    0.000  0.264  0.000  0.088  0.040  0.113  0.000  0.038  0.120  0.663
 
band    20 # energy    6.91836805 # occ.  0.00000000
 
ion      s     py     pz     px    dxy    dyz    dz2    dxz  x2-y2    tot
    1  0.003  0.001  0.004  0.002  0.001  0.000  0.000  0.001  0.000  0.013
    2  0.011  0.000  0.000  0.000  0.171  0.071  0.197  0.213  0.057  0.720
    3  0.006  0.000  0.003  0.000  0.003  0.000  0.002  0.000  0.001  0.017
    4  0.006  0.000  0.003  0.000  0.003  0.000  0.002  0.000  0.001  0.017
tot    0.026  0.001  0.011  0.003  0.178  0.072  0.201  0.215  0.059  0.767
 
band    21 # energy    7.29706902 # occ.  0.00000000
 
ion      s     py     pz     px    dxy    dyz    dz2    dxz  x2-y2    tot
    1  0.000  0.000  0.000  0.000  0.004  0.010  0.000  0.003  0.012  0.030
    2  0.000  0.002  0.000  0.001  0.081  0.297  0.000  0.099  0.242  0.722
    3  0.000  0.028  0.000  0.009  0.001  0.000  0.000  0.000  0.002  0.041
    4  0.000  0.028  0.000  0.009  0.001  0.000  0.000  0.000  0.002  0.041
tot    0.000  0.060  0.000  0.020  0.086  0.308  0.000  0.103  0.258  0.833
 
band    22 # energy    7.43847760 # occ.  0.00000000
 
ion      s     py     pz     px    dxy    dyz    dz2    dxz  x2-y2    tot
    1  0.003  0.000  0.000  0.001  0.005  0.002  0.001  0.005  0.002  0.018
    2  0.003  0.001  0.001  0.003  0.149  0.009  0.454  0.027  0.050  0.696
    3  0.002  0.010  0.012  0.030  0.000  0.000  0.001  0.000  0.000  0.056
    4  0.002  0.010  0.012  0.030  0.000  0.000  0.001  0.000  0.000  0.056
tot    0.011  0.021  0.025  0.063  0.154  0.011  0.457  0.033  0.051  0.826
 
band    23 # energy    7.56889683 # occ.  0.00000000
 
ion      s     py     pz     px    dxy    dyz    dz2    dxz  x2-y2    tot
    1  0.032  0.003  0.000  0.008  0.003  0.000  0.006  0.001  0.001  0.053
    2  0.001  0.000  0.004  0.000  0.151  0.108  0.024  0.324  0.050  0.663
    3  0.016  0.006  0.006  0.017  0.000  0.001  0.000  0.004  0.000  0.050
    4  0.016  0.006  0.006  0.017  0.000  0.001  0.000  0.004  0.000  0.050
tot    0.066  0.014  0.015  0.042  0.155  0.111  0.031  0.332  0.052  0.816
 
band    24 # energy    8.04948763 # occ.  0.00000000
 
ion      s     py     pz     px    dxy    dyz    dz2    dxz  x2-y2    tot
    1  0.000  0.015  0.000  0.005  0.001  0.003  0.000  0.001  0.002  0.027
    2  0.000  0.001  0.000  0.000  0.085  0.230  0.000  0.077  0.254  0.648
    3  0.000  0.053  0.000  0.018  0.000  0.004  0.000  0.001  0.001  0.076
    4  0.000  0.053  0.000  0.018  0.000  0.004  0.000  0.001  0.001  0.076
tot    0.000  0.121  0.000  0.040  0.086  0.241  0.000  0.080  0.258  0.827
 

 k-point    16 :   -0.10526316 0.00000000 0.50000000     weight = 0.02500000

band     1 # energy  -44.23133709 # occ.  1.00000000
 
ion      s     py     pz     px    dxy    dyz    dz2    dxz  x2-y2    tot
    1  0.000  0.228  0.000  0.767  0.000  0.000  0.000  0.000  0.000  0.995
    2  0.000  0.000  0.000  0.000  0.000  0.000  0.000  0.000  0.000  0.000
    3  0.000  0.000  0.000  0.000  0.000  0.000  0.000  0.000  0.000  0.000
    4  0.000  0.000  0.000  0.000  0.000  0.000  0.000  0.000  0.000  0.000
tot    0.000  0.228  0.000  0.767  0.000  0.000  0.000  0.000  0.000  0.995
 
band     2 # energy  -44.23126563 # occ.  1.00000000
 
ion      s     py     pz     px    dxy    dyz    dz2    dxz  x2-y2    tot
    1  0.000  0.767  0.000  0.228  0.000  0.000  0.000  0.000  0.000  0.995
    2  0.000  0.000  0.000  0.000  0.000  0.000  0.000  0.000  0.000  0.000
    3  0.000  0.000  0.000  0.000  0.000  0.000  0.000  0.000  0.000  0.000
    4  0.000  0.000  0.000  0.000  0.000  0.000  0.000  0.000  0.000  0.000
tot    0.000  0.767  0.000  0.228  0.000  0.000  0.000  0.000  0.000  0.995
 
band     3 # energy  -44.22827843 # occ.  1.00000000
 
ion      s     py     pz     px    dxy    dyz    dz2    dxz  x2-y2    tot
    1  0.000  0.000  0.995  0.000  0.000  0.000  0.000  0.000  0.000  0.995
    2  0.000  0.000  0.000  0.000  0.000  0.000  0.000  0.000  0.000  0.000
    3  0.000  0.000  0.000  0.000  0.000  0.000  0.000  0.000  0.000  0.000
    4  0.000  0.000  0.000  0.000  0.000  0.000  0.000  0.000  0.000  0.000
tot    0.000  0.000  0.995  0.000  0.000  0.000  0.000  0.000  0.000  0.995
 
band     4 # energy  -39.85059620 # occ.  1.00000000
 
ion      s     py     pz     px    dxy    dyz    dz2    dxz  x2-y2    tot
    1  0.000  0.000  0.000  0.000  0.000  0.000  0.000  0.000  0.000  0.000
    2  0.000  0.000  0.995  0.000  0.000  0.000  0.000  0.000  0.000  0.995
    3  0.000  0.000  0.000  0.000  0.000  0.000  0.000  0.000  0.000  0.000
    4  0.000  0.000  0.000  0.000  0.000  0.000  0.000  0.000  0.000  0.000
tot    0.000  0.000  0.995  0.000  0.000  0.000  0.000  0.000  0.000  0.995
 
band     5 # energy  -39.84373171 # occ.  1.00000000
 
ion      s     py     pz     px    dxy    dyz    dz2    dxz  x2-y2    tot
    1  0.000  0.000  0.000  0.000  0.000  0.000  0.000  0.000  0.000  0.000
    2  0.000  0.228  0.000  0.768  0.000  0.000  0.000  0.000  0.000  0.996
    3  0.000  0.000  0.000  0.000  0.000  0.000  0.000  0.000  0.000  0.000
    4  0.000  0.000  0.000  0.000  0.000  0.000  0.000  0.000  0.000  0.000
tot    0.000  0.228  0.000  0.768  0.000  0.000  0.000  0.000  0.000  0.996
 
band     6 # energy  -39.84362519 # occ.  1.00000000
 
ion      s     py     pz     px    dxy    dyz    dz2    dxz  x2-y2    tot
    1  0.000  0.000  0.000  0.000  0.000  0.000  0.000  0.000  0.000  0.000
    2  0.000  0.768  0.000  0.228  0.000  0.000  0.000  0.000  0.000  0.996
    3  0.000  0.000  0.000  0.000  0.000  0.000  0.000  0.000  0.000  0.000
    4  0.000  0.000  0.000  0.000  0.000  0.000  0.000  0.000  0.000  0.000
tot    0.000  0.768  0.000  0.228  0.000  0.000  0.000  0.000  0.000  0.996
 
band     7 # energy   -5.42157284 # occ.  1.00000000
 
ion      s     py     pz     px    dxy    dyz    dz2    dxz  x2-y2    tot
    1  0.028  0.000  0.000  0.000  0.000  0.000  0.000  0.000  0.000  0.029
    2  0.000  0.000  0.004  0.000  0.000  0.000  0.000  0.000  0.000  0.005
    3  0.291  0.000  0.001  0.000  0.000  0.000  0.000  0.000  0.000  0.292
    4  0.291  0.000  0.001  0.000  0.000  0.000  0.000  0.000  0.000  0.292
tot    0.610  0.000  0.007  0.001  0.000  0.000  0.000  0.000  0.000  0.619
 
band     8 # energy   -5.37954285 # occ.  1.00000000
 
ion      s     py     pz     px    dxy    dyz    dz2    dxz  x2-y2    tot
    1  0.000  0.000  0.006  0.000  0.000  0.000  0.000  0.001  0.000  0.006
    2  0.022  0.000  0.000  0.000  0.000  0.000  0.000  0.000  0.000  0.023
    3  0.295  0.000  0.001  0.000  0.000  0.000  0.000  0.000  0.000  0.296
    4  0.295  0.000  0.001  0.000  0.000  0.000  0.000  0.000  0.000  0.296
tot    0.612  0.000  0.008  0.001  0.000  0.000  0.000  0.001  0.000  0.622
 
band     9 # energy    2.17665522 # occ.  1.00000000
 
ion      s     py     pz     px    dxy    dyz    dz2    dxz  x2-y2    tot
    1  0.055  0.000  0.000  0.000  0.000  0.000  0.256  0.001  0.000  0.313
    2  0.000  0.000  0.006  0.000  0.004  0.001  0.000  0.003  0.001  0.015
    3  0.020  0.001  0.096  0.003  0.000  0.000  0.001  0.000  0.000  0.121
    4  0.020  0.001  0.096  0.003  0.000  0.000  0.001  0.000  0.000  0.121
tot    0.096  0.002  0.199  0.005  0.004  0.001  0.257  0.004  0.001  0.569
 
band    10 # energy    2.32117623 # occ.  1.00000000
 
ion      s     py     pz     px    dxy    dyz    dz2    dxz  x2-y2    tot
    1  0.000  0.000  0.001  0.000  0.184  0.035  0.000  0.104  0.061  0.385
    2  0.033  0.000  0.000  0.000  0.000  0.000  0.007  0.000  0.000  0.040
    3  0.012  0.009  0.062  0.026  0.000  0.000  0.000  0.000  0.000  0.109
    4  0.012  0.009  0.062  0.026  0.000  0.000  0.000  0.000  0.000  0.109
tot    0.057  0.017  0.125  0.052  0.184  0.035  0.007  0.104  0.061  0.643
 
band    11 # energy    2.72510944 # occ.  1.00000000
 
ion      s     py     pz     px    dxy    dyz    dz2    dxz  x2-y2    tot
    1  0.000  0.000  0.000  0.000  0.107  0.203  0.000  0.068  0.322  0.700
    2  0.000  0.001  0.000  0.000  0.000  0.000  0.000  0.000  0.000  0.002
    3  0.000  0.038  0.000  0.013  0.000  0.001  0.000  0.000  0.000  0.053
    4  0.000  0.038  0.000  0.013  0.000  0.001  0.000  0.000  0.000  0.053
tot    0.000  0.078  0.000  0.026  0.108  0.205  0.000  0.068  0.323  0.807
 
band    12 # energy    3.18801799 # occ.  1.00000000
 
ion      s     py     pz     px    dxy    dyz    dz2    dxz  x2-y2    tot
    1  0.001  0.000  0.008  0.000  0.332  0.011  0.012  0.032  0.111  0.506
    2  0.019  0.000  0.000  0.001  0.001  0.000  0.019  0.001  0.000  0.042
    3  0.007  0.004  0.054  0.011  0.000  0.000  0.001  0.001  0.000  0.078
    4  0.007  0.004  0.054  0.011  0.000  0.000  0.001  0.001  0.000  0.078
tot    0.033  0.008  0.116  0.023  0.333  0.011  0.033  0.034  0.111  0.703
 
band    13 # energy    3.22814745 # occ.  1.00000000
 
ion      s     py     pz     px    dxy    dyz    dz2    dxz  x2-y2    tot
    1  0.005  0.000  0.005  0.000  0.009  0.116  0.076  0.348  0.003  0.564
    2  0.008  0.001  0.001  0.002  0.005  0.001  0.012  0.002  0.002  0.034
    3  0.007  0.007  0.034  0.022  0.001  0.000  0.000  0.000  0.000  0.072
    4  0.007  0.007  0.034  0.022  0.001  0.000  0.000  0.000  0.000  0.072
tot    0.028  0.015  0.073  0.046  0.016  0.117  0.089  0.351  0.005  0.741
 
band    14 # energy    3.27409732 # occ.  1.00000000
 
ion      s     py     pz     px    dxy    dyz    dz2    dxz  x2-y2    tot
    1  0.000  0.000  0.000  0.000  0.085  0.395  0.000  0.132  0.254  0.865
    2  0.000  0.000  0.000  0.000  0.000  0.001  0.000  0.000  0.001  0.003
    3  0.000  0.005  0.000  0.002  0.000  0.000  0.000  0.000  0.001  0.008
    4  0.000  0.005  0.000  0.002  0.000  0.000  0.000  0.000  0.001  0.008
tot    0.000  0.011  0.000  0.004  0.086  0.396  0.000  0.132  0.257  0.885
 
band    15 # energy    3.50861502 # occ.  1.00000000
 
ion      s     py     pz     px    dxy    dyz    dz2    dxz  x2-y2    tot
    1  0.035  0.000  0.000  0.001  0.028  0.037  0.389  0.111  0.009  0.611
    2  0.000  0.000  0.001  0.000  0.014  0.004  0.001  0.011  0.005  0.035
    3  0.014  0.007  0.023  0.021  0.000  0.000  0.001  0.000  0.000  0.066
    4  0.014  0.007  0.023  0.021  0.000  0.000  0.001  0.000  0.000  0.066
tot    0.064  0.014  0.046  0.043  0.043  0.041  0.391  0.122  0.014  0.778
 
band    16 # energy    4.50676358 # occ.  1.00000000
 
ion      s     py     pz     px    dxy    dyz    dz2    dxz  x2-y2    tot
    1  0.000  0.009  0.000  0.003  0.004  0.014  0.000  0.005  0.011  0.044
    2  0.000  0.000  0.000  0.000  0.031  0.075  0.000  0.025  0.093  0.225
    3  0.000  0.130  0.000  0.043  0.000  0.001  0.000  0.000  0.000  0.175
    4  0.000  0.130  0.000  0.043  0.000  0.001  0.000  0.000  0.000  0.175
tot    0.000  0.269  0.000  0.090  0.035  0.090  0.000  0.030  0.105  0.618
 
band    17 # energy    4.69299082 # occ.  1.00000000
 
ion      s     py     pz     px    dxy    dyz    dz2    dxz  x2-y2    tot
    1  0.007  0.003  0.000  0.009  0.009  0.002  0.151  0.007  0.003  0.192
    2  0.000  0.000  0.006  0.000  0.057  0.012  0.000  0.036  0.019  0.130
    3  0.002  0.032  0.033  0.095  0.000  0.000  0.000  0.001  0.000  0.162
    4  0.002  0.032  0.033  0.095  0.000  0.000  0.000  0.001  0.000  0.162
tot    0.010  0.066  0.071  0.199  0.066  0.015  0.152  0.044  0.022  0.646
 
band    18 # energy    5.57431053 # occ.  1.00000000
 
ion      s     py     pz     px    dxy    dyz    dz2    dxz  x2-y2    tot
    1  0.001  0.000  0.010  0.001  0.106  0.025  0.000  0.074  0.035  0.253
    2  0.017  0.003  0.000  0.008  0.013  0.004  0.039  0.013  0.004  0.101
    3  0.014  0.033  0.001  0.100  0.001  0.000  0.001  0.001  0.000  0.151
    4  0.014  0.033  0.001  0.100  0.001  0.000  0.001  0.001  0.000  0.151
tot    0.045  0.070  0.011  0.210  0.120  0.030  0.042  0.089  0.040  0.656
 
band    19 # energy    6.09874097 # occ.  1.00000000
 
ion      s     py     pz     px    dxy    dyz    dz2    dxz  x2-y2    tot
    1  0.000  0.003  0.000  0.001  0.028  0.066  0.000  0.022  0.085  0.205
    2  0.000  0.010  0.000  0.003  0.011  0.040  0.000  0.013  0.033  0.110
    3  0.000  0.130  0.000  0.043  0.000  0.001  0.000  0.000  0.001  0.177
    4  0.000  0.130  0.000  0.043  0.000  0.001  0.000  0.000  0.001  0.177
tot    0.000  0.274  0.000  0.091  0.040  0.108  0.000  0.036  0.120  0.669
 
band    20 # energy    6.94219939 # occ.  0.00000000
 
ion      s     py     pz     px    dxy    dyz    dz2    dxz  x2-y2    tot
    1  0.001  0.001  0.004  0.002  0.000  0.000  0.000  0.001  0.000  0.010
    2  0.011  0.000  0.000  0.000  0.157  0.076  0.209  0.228  0.052  0.733
    3  0.006  0.000  0.003  0.000  0.003  0.000  0.002  0.000  0.001  0.016
    4  0.006  0.000  0.003  0.000  0.003  0.000  0.002  0.000  0.001  0.016
tot    0.025  0.001  0.010  0.003  0.163  0.076  0.213  0.229  0.054  0.775
 
band    21 # energy    7.22781402 # occ.  0.00000000
 
ion      s     py     pz     px    dxy    dyz    dz2    dxz  x2-y2    tot
    1  0.000  0.000  0.000  0.000  0.004  0.009  0.000  0.003  0.012  0.029
    2  0.000  0.002  0.000  0.001  0.075  0.311  0.000  0.104  0.225  0.718
    3  0.000  0.027  0.000  0.009  0.001  0.000  0.000  0.000  0.002  0.039
    4  0.000  0.027  0.000  0.009  0.001  0.000  0.000  0.000  0.002  0.039
tot    0.000  0.056  0.000  0.019  0.081  0.321  0.000  0.107  0.242  0.825
 
band    22 # energy    7.36683896 # occ.  0.00000000
 
ion      s     py     pz     px    dxy    dyz    dz2    dxz  x2-y2    tot
    1  0.000  0.000  0.001  0.000  0.008  0.002  0.000  0.005  0.003  0.019
    2  0.005  0.001  0.000  0.003  0.084  0.030  0.441  0.089  0.028  0.681
    3  0.002  0.011  0.010  0.033  0.001  0.000  0.002  0.000  0.000  0.059
    4  0.002  0.011  0.010  0.033  0.001  0.000  0.002  0.000  0.000  0.059
tot    0.010  0.023  0.021  0.069  0.093  0.031  0.445  0.094  0.031  0.817
 
band    23 # energy    7.70827893 # occ.  0.00000000
 
ion      s     py     pz     px    dxy    dyz    dz2    dxz  x2-y2    tot
    1  0.029  0.003  0.000  0.010  0.001  0.000  0.008  0.001  0.000  0.053
    2  0.000  0.000  0.005  0.000  0.229  0.080  0.000  0.239  0.076  0.630
    3  0.015  0.009  0.006  0.026  0.000  0.001  0.001  0.004  0.000  0.062
    4  0.015  0.009  0.006  0.026  0.000  0.001  0.001  0.004  0.000  0.062
tot    0.059  0.021  0.017  0.062  0.231  0.083  0.009  0.249  0.077  0.807
 
band    24 # energy    8.09756704 # occ.  0.00000000
 
ion      s     py     pz     px    dxy    dyz    dz2    dxz  x2-y2    tot
    1  0.000  0.015  0.000  0.005  0.000  0.002  0.000  0.001  0.001  0.025
    2  0.000  0.001  0.000  0.000  0.088  0.216  0.000  0.072  0.264  0.642
    3  0.000  0.057  0.000  0.019  0.000  0.004  0.000  0.001  0.000  0.081
    4  0.000  0.057  0.000  0.019  0.000  0.004  0.000  0.001  0.000  0.081
tot    0.000  0.129  0.000  0.043  0.089  0.226  0.000  0.075  0.267  0.829
 

 k-point    17 :   -0.07894737 0.00000000 0.50000000     weight = 0.02500000

band     1 # energy  -44.23129058 # occ.  1.00000000
 
ion      s     py     pz     px    dxy    dyz    dz2    dxz  x2-y2    tot
    1  0.000  0.201  0.000  0.794  0.000  0.000  0.000  0.000  0.000  0.995
    2  0.000  0.000  0.000  0.000  0.000  0.000  0.000  0.000  0.000  0.000
    3  0.000  0.000  0.000  0.000  0.000  0.000  0.000  0.000  0.000  0.000
    4  0.000  0.000  0.000  0.000  0.000  0.000  0.000  0.000  0.000  0.000
tot    0.000  0.201  0.000  0.794  0.000  0.000  0.000  0.000  0.000  0.995
 
band     2 # energy  -44.23126025 # occ.  1.00000000
 
ion      s     py     pz     px    dxy    dyz    dz2    dxz  x2-y2    tot
    1  0.000  0.794  0.000  0.201  0.000  0.000  0.000  0.000  0.000  0.995
    2  0.000  0.000  0.000  0.000  0.000  0.000  0.000  0.000  0.000  0.000
    3  0.000  0.000  0.000  0.000  0.000  0.000  0.000  0.000  0.000  0.000
    4  0.000  0.000  0.000  0.000  0.000  0.000  0.000  0.000  0.000  0.000
tot    0.000  0.794  0.000  0.201  0.000  0.000  0.000  0.000  0.000  0.995
 
band     3 # energy  -44.22828611 # occ.  1.00000000
 
ion      s     py     pz     px    dxy    dyz    dz2    dxz  x2-y2    tot
    1  0.000  0.000  0.995  0.000  0.000  0.000  0.000  0.000  0.000  0.995
    2  0.000  0.000  0.000  0.000  0.000  0.000  0.000  0.000  0.000  0.000
    3  0.000  0.000  0.000  0.000  0.000  0.000  0.000  0.000  0.000  0.000
    4  0.000  0.000  0.000  0.000  0.000  0.000  0.000  0.000  0.000  0.000
tot    0.000  0.000  0.995  0.000  0.000  0.000  0.000  0.000  0.000  0.995
 
band     4 # energy  -39.85060834 # occ.  1.00000000
 
ion      s     py     pz     px    dxy    dyz    dz2    dxz  x2-y2    tot
    1  0.000  0.000  0.000  0.000  0.000  0.000  0.000  0.000  0.000  0.000
    2  0.000  0.000  0.995  0.000  0.000  0.000  0.000  0.000  0.000  0.995
    3  0.000  0.000  0.000  0.000  0.000  0.000  0.000  0.000  0.000  0.000
    4  0.000  0.000  0.000  0.000  0.000  0.000  0.000  0.000  0.000  0.000
tot    0.000  0.000  0.995  0.000  0.000  0.000  0.000  0.000  0.000  0.995
 
band     5 # energy  -39.84366363 # occ.  1.00000000
 
ion      s     py     pz     px    dxy    dyz    dz2    dxz  x2-y2    tot
    1  0.000  0.000  0.000  0.000  0.000  0.000  0.000  0.000  0.000  0.000
    2  0.000  0.203  0.000  0.793  0.000  0.000  0.000  0.000  0.000  0.996
    3  0.000  0.000  0.000  0.000  0.000  0.000  0.000  0.000  0.000  0.000
    4  0.000  0.000  0.000  0.000  0.000  0.000  0.000  0.000  0.000  0.000
tot    0.000  0.203  0.000  0.793  0.000  0.000  0.000  0.000  0.000  0.996
 
band     6 # energy  -39.84361573 # occ.  1.00000000
 
ion      s     py     pz     px    dxy    dyz    dz2    dxz  x2-y2    tot
    1  0.000  0.000  0.000  0.000  0.000  0.000  0.000  0.000  0.000  0.000
    2  0.000  0.793  0.000  0.203  0.000  0.000  0.000  0.000  0.000  0.996
    3  0.000  0.000  0.000  0.000  0.000  0.000  0.000  0.000  0.000  0.000
    4  0.000  0.000  0.000  0.000  0.000  0.000  0.000  0.000  0.000  0.000
tot    0.000  0.793  0.000  0.203  0.000  0.000  0.000  0.000  0.000  0.996
 
band     7 # energy   -5.45213746 # occ.  1.00000000
 
ion      s     py     pz     px    dxy    dyz    dz2    dxz  x2-y2    tot
    1  0.029  0.000  0.000  0.000  0.000  0.000  0.000  0.000  0.000  0.029
    2  0.000  0.000  0.005  0.000  0.000  0.000  0.000  0.000  0.000  0.005
    3  0.290  0.000  0.001  0.000  0.000  0.000  0.000  0.000  0.000  0.291
    4  0.290  0.000  0.001  0.000  0.000  0.000  0.000  0.000  0.000  0.291
tot    0.609  0.000  0.007  0.000  0.000  0.000  0.000  0.000  0.000  0.617
 
band     8 # energy   -5.40844252 # occ.  1.00000000
 
ion      s     py     pz     px    dxy    dyz    dz2    dxz  x2-y2    tot
    1  0.000  0.000  0.006  0.000  0.000  0.000  0.000  0.000  0.000  0.006
    2  0.023  0.000  0.000  0.000  0.000  0.000  0.000  0.000  0.000  0.023
    3  0.294  0.000  0.001  0.000  0.000  0.000  0.000  0.000  0.000  0.295
    4  0.294  0.000  0.001  0.000  0.000  0.000  0.000  0.000  0.000  0.295
tot    0.611  0.000  0.008  0.000  0.000  0.000  0.000  0.000  0.000  0.620
 
band     9 # energy    2.16803872 # occ.  1.00000000
 
ion      s     py     pz     px    dxy    dyz    dz2    dxz  x2-y2    tot
    1  0.053  0.000  0.000  0.000  0.000  0.000  0.273  0.000  0.000  0.327
    2  0.000  0.000  0.007  0.000  0.002  0.001  0.000  0.002  0.001  0.012
    3  0.019  0.000  0.096  0.001  0.000  0.000  0.001  0.000  0.000  0.117
    4  0.019  0.000  0.096  0.001  0.000  0.000  0.001  0.000  0.000  0.117
tot    0.092  0.001  0.198  0.003  0.002  0.001  0.275  0.002  0.001  0.574
 
band    10 # energy    2.42253084 # occ.  1.00000000
 
ion      s     py     pz     px    dxy    dyz    dz2    dxz  x2-y2    tot
    1  0.000  0.000  0.002  0.000  0.190  0.035  0.000  0.106  0.063  0.397
    2  0.031  0.000  0.000  0.000  0.000  0.000  0.008  0.000  0.000  0.040
    3  0.012  0.008  0.062  0.024  0.000  0.000  0.000  0.000  0.000  0.107
    4  0.012  0.008  0.062  0.024  0.000  0.000  0.000  0.000  0.000  0.107
tot    0.054  0.016  0.127  0.049  0.190  0.036  0.009  0.107  0.063  0.651
 
band    11 # energy    2.72078378 # occ.  1.00000000
 
ion      s     py     pz     px    dxy    dyz    dz2    dxz  x2-y2    tot
    1  0.000  0.000  0.000  0.000  0.113  0.189  0.000  0.063  0.338  0.702
    2  0.000  0.001  0.000  0.000  0.000  0.000  0.000  0.000  0.000  0.002
    3  0.000  0.038  0.000  0.013  0.000  0.001  0.000  0.000  0.000  0.052
    4  0.000  0.038  0.000  0.013  0.000  0.001  0.000  0.000  0.000  0.052
tot    0.000  0.076  0.000  0.025  0.113  0.191  0.000  0.064  0.338  0.807
 
band    12 # energy    3.08524520 # occ.  1.00000000
 
ion      s     py     pz     px    dxy    dyz    dz2    dxz  x2-y2    tot
    1  0.000  0.000  0.011  0.000  0.199  0.009  0.000  0.028  0.066  0.313
    2  0.030  0.000  0.000  0.001  0.000  0.000  0.029  0.000  0.000  0.060
    3  0.012  0.005  0.086  0.015  0.000  0.000  0.001  0.001  0.000  0.119
    4  0.012  0.005  0.086  0.015  0.000  0.000  0.001  0.001  0.000  0.119
tot    0.054  0.010  0.183  0.031  0.199  0.010  0.030  0.029  0.066  0.612
 
band    13 # energy    3.26847097 # occ.  1.00000000
 
ion      s     py     pz     px    dxy    dyz    dz2    dxz  x2-y2    tot
    1  0.001  0.000  0.000  0.000  0.167  0.148  0.021  0.443  0.056  0.835
    2  0.000  0.000  0.000  0.001  0.002  0.000  0.001  0.001  0.001  0.006
    3  0.001  0.002  0.002  0.007  0.001  0.000  0.000  0.000  0.000  0.015
    4  0.001  0.002  0.002  0.007  0.001  0.000  0.000  0.000  0.000  0.015
tot    0.004  0.005  0.005  0.015  0.171  0.148  0.022  0.444  0.057  0.871
 
band    14 # energy    3.28646447 # occ.  1.00000000
 
ion      s     py     pz     px    dxy    dyz    dz2    dxz  x2-y2    tot
    1  0.000  0.000  0.000  0.000  0.080  0.418  0.000  0.139  0.240  0.878
    2  0.000  0.000  0.000  0.000  0.000  0.001  0.000  0.000  0.001  0.002
    3  0.000  0.003  0.000  0.001  0.000  0.000  0.000  0.000  0.001  0.006
    4  0.000  0.003  0.000  0.001  0.000  0.000  0.000  0.000  0.001  0.006
tot    0.000  0.007  0.000  0.002  0.081  0.419  0.000  0.140  0.243  0.891
 
band    15 # energy    3.59754754 # occ.  1.00000000
 
ion      s     py     pz     px    dxy    dyz    dz2    dxz  x2-y2    tot
    1  0.044  0.000  0.000  0.001  0.010  0.010  0.474  0.029  0.003  0.571
    2  0.000  0.000  0.000  0.000  0.015  0.004  0.000  0.011  0.005  0.035
    3  0.017  0.007  0.030  0.022  0.000  0.000  0.001  0.000  0.000  0.078
    4  0.017  0.007  0.030  0.022  0.000  0.000  0.001  0.000  0.000  0.078
tot    0.079  0.015  0.060  0.045  0.026  0.013  0.476  0.040  0.009  0.761
 
band    16 # energy    4.50993798 # occ.  1.00000000
 
ion      s     py     pz     px    dxy    dyz    dz2    dxz  x2-y2    tot
    1  0.000  0.008  0.000  0.003  0.002  0.008  0.000  0.003  0.006  0.030
    2  0.000  0.000  0.000  0.000  0.033  0.073  0.000  0.024  0.100  0.232
    3  0.000  0.131  0.000  0.044  0.000  0.001  0.000  0.000  0.000  0.176
    4  0.000  0.131  0.000  0.044  0.000  0.001  0.000  0.000  0.000  0.176
tot    0.000  0.271  0.000  0.090  0.036  0.083  0.000  0.028  0.107  0.615
 
band    17 # energy    4.63689592 # occ.  1.00000000
 
ion      s     py     pz     px    dxy    dyz    dz2    dxz  x2-y2    tot
    1  0.006  0.003  0.000  0.008  0.005  0.002  0.113  0.005  0.002  0.144
    2  0.000  0.000  0.004  0.000  0.074  0.015  0.000  0.046  0.025  0.164
    3  0.002  0.035  0.023  0.105  0.000  0.000  0.000  0.001  0.000  0.165
    4  0.002  0.035  0.023  0.105  0.000  0.000  0.000  0.001  0.000  0.165
tot    0.009  0.073  0.050  0.218  0.079  0.018  0.113  0.053  0.026  0.639
 
band    18 # energy    5.84348563 # occ.  1.00000000
 
ion      s     py     pz     px    dxy    dyz    dz2    dxz  x2-y2    tot
    1  0.000  0.000  0.008  0.001  0.100  0.022  0.000  0.065  0.033  0.230
    2  0.014  0.003  0.000  0.008  0.011  0.005  0.045  0.014  0.004  0.104
    3  0.011  0.037  0.000  0.112  0.000  0.000  0.001  0.001  0.000  0.163
    4  0.011  0.037  0.000  0.112  0.000  0.000  0.001  0.001  0.000  0.163
tot    0.036  0.078  0.009  0.233  0.112  0.027  0.048  0.081  0.037  0.660
 
band    19 # energy    6.20505213 # occ.  1.00000000
 
ion      s     py     pz     px    dxy    dyz    dz2    dxz  x2-y2    tot
    1  0.000  0.002  0.000  0.001  0.030  0.063  0.000  0.021  0.090  0.206
    2  0.000  0.010  0.000  0.003  0.009  0.036  0.000  0.012  0.026  0.096
    3  0.000  0.138  0.000  0.046  0.000  0.001  0.000  0.000  0.001  0.186
    4  0.000  0.138  0.000  0.046  0.000  0.001  0.000  0.000  0.001  0.186
tot    0.000  0.288  0.000  0.096  0.039  0.100  0.000  0.033  0.117  0.674
 
band    20 # energy    6.96003681 # occ.  0.00000000
 
ion      s     py     pz     px    dxy    dyz    dz2    dxz  x2-y2    tot
    1  0.001  0.001  0.004  0.002  0.000  0.000  0.000  0.000  0.000  0.008
    2  0.011  0.000  0.000  0.000  0.146  0.077  0.225  0.231  0.049  0.739
    3  0.006  0.000  0.003  0.000  0.003  0.000  0.002  0.000  0.001  0.016
    4  0.006  0.000  0.003  0.000  0.003  0.000  0.002  0.000  0.001  0.016
tot    0.024  0.001  0.010  0.003  0.152  0.077  0.229  0.232  0.051  0.780
 
band    21 # energy    7.15397091 # occ.  0.00000000
 
ion      s     py     pz     px    dxy    dyz    dz2    dxz  x2-y2    tot
    1  0.000  0.001  0.000  0.000  0.004  0.007  0.000  0.002  0.011  0.025
    2  0.000  0.002  0.000  0.001  0.072  0.326  0.000  0.109  0.216  0.725
    3  0.000  0.022  0.000  0.007  0.001  0.000  0.000  0.000  0.003  0.034
    4  0.000  0.022  0.000  0.007  0.001  0.000  0.000  0.000  0.003  0.034
tot    0.000  0.047  0.000  0.016  0.078  0.334  0.000  0.111  0.233  0.818
 
band    22 # energy    7.26734114 # occ.  0.00000000
 
ion      s     py     pz     px    dxy    dyz    dz2    dxz  x2-y2    tot
    1  0.000  0.000  0.001  0.000  0.011  0.002  0.000  0.006  0.004  0.024
    2  0.008  0.001  0.000  0.003  0.076  0.037  0.400  0.111  0.025  0.660
    3  0.003  0.011  0.008  0.033  0.001  0.000  0.002  0.000  0.000  0.059
    4  0.003  0.011  0.008  0.033  0.001  0.000  0.002  0.000  0.000  0.059
tot    0.015  0.023  0.018  0.070  0.088  0.039  0.404  0.117  0.029  0.803
 
band    23 # energy    7.86973022 # occ.  0.00000000
 
ion      s     py     pz     px    dxy    dyz    dz2    dxz  x2-y2    tot
    1  0.021  0.004  0.000  0.012  0.001  0.000  0.007  0.001  0.000  0.046
    2  0.000  0.000  0.005  0.000  0.250  0.070  0.000  0.209  0.083  0.616
    3  0.012  0.012  0.006  0.037  0.000  0.001  0.001  0.004  0.000  0.072
    4  0.012  0.012  0.006  0.037  0.000  0.001  0.001  0.004  0.000  0.072
tot    0.045  0.028  0.016  0.085  0.251  0.073  0.008  0.218  0.084  0.807
 
band    24 # energy    8.13921729 # occ.  0.00000000
 
ion      s     py     pz     px    dxy    dyz    dz2    dxz  x2-y2    tot
    1  0.000  0.015  0.000  0.005  0.000  0.002  0.000  0.001  0.001  0.023
    2  0.000  0.001  0.000  0.000  0.090  0.206  0.000  0.069  0.271  0.637
    3  0.000  0.060  0.000  0.020  0.000  0.004  0.000  0.001  0.000  0.086
    4  0.000  0.060  0.000  0.020  0.000  0.004  0.000  0.001  0.000  0.086
tot    0.000  0.136  0.000  0.045  0.091  0.215  0.000  0.072  0.272  0.831
 

 k-point    18 :   -0.05263158 0.00000000 0.50000000     weight = 0.02500000

band     1 # energy  -44.23127050 # occ.  1.00000000
 
ion      s     py     pz     px    dxy    dyz    dz2    dxz  x2-y2    tot
    1  0.000  0.102  0.000  0.893  0.000  0.000  0.000  0.000  0.000  0.995
    2  0.000  0.000  0.000  0.000  0.000  0.000  0.000  0.000  0.000  0.000
    3  0.000  0.000  0.000  0.000  0.000  0.000  0.000  0.000  0.000  0.000
    4  0.000  0.000  0.000  0.000  0.000  0.000  0.000  0.000  0.000  0.000
tot    0.000  0.102  0.000  0.893  0.000  0.000  0.000  0.000  0.000  0.995
 
band     2 # energy  -44.23126152 # occ.  1.00000000
 
ion      s     py     pz     px    dxy    dyz    dz2    dxz  x2-y2    tot
    1  0.000  0.893  0.000  0.102  0.000  0.000  0.000  0.000  0.000  0.995
    2  0.000  0.000  0.000  0.000  0.000  0.000  0.000  0.000  0.000  0.000
    3  0.000  0.000  0.000  0.000  0.000  0.000  0.000  0.000  0.000  0.000
    4  0.000  0.000  0.000  0.000  0.000  0.000  0.000  0.000  0.000  0.000
tot    0.000  0.893  0.000  0.102  0.000  0.000  0.000  0.000  0.000  0.995
 
band     3 # energy  -44.22829214 # occ.  1.00000000
 
ion      s     py     pz     px    dxy    dyz    dz2    dxz  x2-y2    tot
    1  0.000  0.000  0.995  0.000  0.000  0.000  0.000  0.000  0.000  0.995
    2  0.000  0.000  0.000  0.000  0.000  0.000  0.000  0.000  0.000  0.000
    3  0.000  0.000  0.000  0.000  0.000  0.000  0.000  0.000  0.000  0.000
    4  0.000  0.000  0.000  0.000  0.000  0.000  0.000  0.000  0.000  0.000
tot    0.000  0.000  0.995  0.000  0.000  0.000  0.000  0.000  0.000  0.995
 
band     4 # energy  -39.85061860 # occ.  1.00000000
 
ion      s     py     pz     px    dxy    dyz    dz2    dxz  x2-y2    tot
    1  0.000  0.000  0.000  0.000  0.000  0.000  0.000  0.000  0.000  0.000
    2  0.000  0.000  0.995  0.000  0.000  0.000  0.000  0.000  0.000  0.995
    3  0.000  0.000  0.000  0.000  0.000  0.000  0.000  0.000  0.000  0.000
    4  0.000  0.000  0.000  0.000  0.000  0.000  0.000  0.000  0.000  0.000
tot    0.000  0.000  0.995  0.000  0.000  0.000  0.000  0.000  0.000  0.995
 
band     5 # energy  -39.84363235 # occ.  1.00000000
 
ion      s     py     pz     px    dxy    dyz    dz2    dxz  x2-y2    tot
    1  0.000  0.000  0.000  0.000  0.000  0.000  0.000  0.000  0.000  0.000
    2  0.000  0.114  0.000  0.882  0.000  0.000  0.000  0.000  0.000  0.996
    3  0.000  0.000  0.000  0.000  0.000  0.000  0.000  0.000  0.000  0.000
    4  0.000  0.000  0.000  0.000  0.000  0.000  0.000  0.000  0.000  0.000
tot    0.000  0.114  0.000  0.882  0.000  0.000  0.000  0.000  0.000  0.996
 
band     6 # energy  -39.84361721 # occ.  1.00000000
 
ion      s     py     pz     px    dxy    dyz    dz2    dxz  x2-y2    tot
    1  0.000  0.000  0.000  0.000  0.000  0.000  0.000  0.000  0.000  0.000
    2  0.000  0.882  0.000  0.114  0.000  0.000  0.000  0.000  0.000  0.996
    3  0.000  0.000  0.000  0.000  0.000  0.000  0.000  0.000  0.000  0.000
    4  0.000  0.000  0.000  0.000  0.000  0.000  0.000  0.000  0.000  0.000
tot    0.000  0.882  0.000  0.114  0.000  0.000  0.000  0.000  0.000  0.996
 
band     7 # energy   -5.47429874 # occ.  1.00000000
 
ion      s     py     pz     px    dxy    dyz    dz2    dxz  x2-y2    tot
    1  0.030  0.000  0.000  0.000  0.000  0.000  0.000  0.000  0.000  0.030
    2  0.000  0.000  0.005  0.000  0.000  0.000  0.000  0.000  0.000  0.005
    3  0.289  0.000  0.001  0.000  0.000  0.000  0.000  0.000  0.000  0.290
    4  0.289  0.000  0.001  0.000  0.000  0.000  0.000  0.000  0.000  0.290
tot    0.608  0.000  0.007  0.000  0.000  0.000  0.000  0.000  0.000  0.615
 
band     8 # energy   -5.42941057 # occ.  1.00000000
 
ion      s     py     pz     px    dxy    dyz    dz2    dxz  x2-y2    tot
    1  0.000  0.000  0.006  0.000  0.000  0.000  0.000  0.000  0.000  0.006
    2  0.023  0.000  0.000  0.000  0.000  0.000  0.000  0.000  0.000  0.023
    3  0.293  0.000  0.001  0.000  0.000  0.000  0.000  0.000  0.000  0.294
    4  0.293  0.000  0.001  0.000  0.000  0.000  0.000  0.000  0.000  0.294
tot    0.610  0.000  0.008  0.000  0.000  0.000  0.000  0.000  0.000  0.618
 
band     9 # energy    2.15984891 # occ.  1.00000000
 
ion      s     py     pz     px    dxy    dyz    dz2    dxz  x2-y2    tot
    1  0.052  0.000  0.000  0.000  0.000  0.000  0.284  0.000  0.000  0.336
    2  0.000  0.000  0.008  0.000  0.001  0.000  0.000  0.001  0.000  0.010
    3  0.019  0.000  0.095  0.000  0.000  0.000  0.001  0.000  0.000  0.115
    4  0.019  0.000  0.095  0.000  0.000  0.000  0.001  0.000  0.000  0.115
tot    0.090  0.000  0.197  0.001  0.001  0.000  0.286  0.001  0.000  0.576
 
band    10 # energy    2.52587532 # occ.  1.00000000
 
ion      s     py     pz     px    dxy    dyz    dz2    dxz  x2-y2    tot
    1  0.000  0.000  0.003  0.000  0.199  0.036  0.000  0.108  0.066  0.412
    2  0.029  0.000  0.000  0.000  0.000  0.000  0.010  0.000  0.000  0.039
    3  0.011  0.008  0.061  0.023  0.000  0.000  0.000  0.000  0.000  0.104
    4  0.011  0.008  0.061  0.023  0.000  0.000  0.000  0.000  0.000  0.104
tot    0.051  0.016  0.125  0.047  0.199  0.036  0.010  0.109  0.066  0.660
 
band    11 # energy    2.71723494 # occ.  1.00000000
 
ion      s     py     pz     px    dxy    dyz    dz2    dxz  x2-y2    tot
    1  0.000  0.000  0.000  0.000  0.116  0.179  0.000  0.060  0.349  0.704
    2  0.000  0.001  0.000  0.000  0.000  0.000  0.000  0.000  0.000  0.001
    3  0.000  0.037  0.000  0.012  0.000  0.001  0.000  0.000  0.000  0.051
    4  0.000  0.037  0.000  0.012  0.000  0.001  0.000  0.000  0.000  0.051
tot    0.000  0.075  0.000  0.025  0.116  0.181  0.000  0.060  0.349  0.808
 
band    12 # energy    2.97140241 # occ.  1.00000000
 
ion      s     py     pz     px    dxy    dyz    dz2    dxz  x2-y2    tot
    1  0.000  0.000  0.010  0.000  0.168  0.016  0.000  0.049  0.056  0.299
    2  0.033  0.000  0.000  0.001  0.000  0.000  0.026  0.000  0.000  0.061
    3  0.013  0.005  0.089  0.014  0.000  0.000  0.001  0.001  0.000  0.123
    4  0.013  0.005  0.089  0.014  0.000  0.000  0.001  0.001  0.000  0.123
tot    0.060  0.010  0.187  0.030  0.168  0.017  0.028  0.050  0.056  0.606
 
band    13 # energy    3.29150190 # occ.  1.00000000
 
ion      s     py     pz     px    dxy    dyz    dz2    dxz  x2-y2    tot
    1  0.000  0.000  0.000  0.000  0.205  0.151  0.003  0.452  0.068  0.879
    2  0.000  0.000  0.000  0.000  0.001  0.000  0.000  0.000  0.000  0.002
    3  0.000  0.001  0.001  0.002  0.001  0.000  0.000  0.000  0.000  0.005
    4  0.000  0.001  0.001  0.002  0.001  0.000  0.000  0.000  0.000  0.005
tot    0.001  0.002  0.001  0.005  0.208  0.151  0.003  0.452  0.069  0.892
 
band    14 # energy    3.29640452 # occ.  1.00000000
 
ion      s     py     pz     px    dxy    dyz    dz2    dxz  x2-y2    tot
    1  0.000  0.000  0.000  0.000  0.077  0.435  0.000  0.145  0.231  0.888
    2  0.000  0.000  0.000  0.000  0.000  0.000  0.000  0.000  0.000  0.001
    3  0.000  0.002  0.000  0.001  0.000  0.000  0.000  0.000  0.001  0.004
    4  0.000  0.002  0.000  0.001  0.000  0.000  0.000  0.000  0.001  0.004
tot    0.000  0.004  0.000  0.001  0.078  0.436  0.000  0.145  0.233  0.896
 
band    15 # energy    3.69519565 # occ.  1.00000000
 
ion      s     py     pz     px    dxy    dyz    dz2    dxz  x2-y2    tot
    1  0.050  0.000  0.000  0.000  0.002  0.002  0.525  0.005  0.001  0.584
    2  0.000  0.000  0.000  0.000  0.011  0.003  0.000  0.008  0.004  0.024
    3  0.019  0.005  0.039  0.015  0.000  0.000  0.000  0.000  0.000  0.079
    4  0.019  0.005  0.039  0.015  0.000  0.000  0.000  0.000  0.000  0.079
tot    0.088  0.010  0.078  0.030  0.013  0.004  0.526  0.012  0.004  0.766
 
band    16 # energy    4.51107962 # occ.  1.00000000
 
ion      s     py     pz     px    dxy    dyz    dz2    dxz  x2-y2    tot
    1  0.000  0.008  0.000  0.003  0.001  0.004  0.000  0.001  0.003  0.019
    2  0.000  0.000  0.000  0.000  0.035  0.072  0.000  0.024  0.105  0.236
    3  0.000  0.132  0.000  0.044  0.000  0.001  0.000  0.000  0.000  0.178
    4  0.000  0.132  0.000  0.044  0.000  0.001  0.000  0.000  0.000  0.178
tot    0.000  0.273  0.000  0.091  0.036  0.078  0.000  0.026  0.109  0.612
 
band    17 # energy    4.57778012 # occ.  1.00000000
 
ion      s     py     pz     px    dxy    dyz    dz2    dxz  x2-y2    tot
    1  0.004  0.003  0.000  0.008  0.002  0.001  0.066  0.003  0.001  0.088
    2  0.000  0.000  0.002  0.000  0.090  0.019  0.000  0.057  0.030  0.198
    3  0.001  0.039  0.013  0.116  0.000  0.000  0.000  0.001  0.000  0.170
    4  0.001  0.039  0.013  0.116  0.000  0.000  0.000  0.001  0.000  0.170
tot    0.006  0.080  0.028  0.241  0.093  0.021  0.066  0.062  0.031  0.628
 
band    18 # energy    6.09695354 # occ.  1.00000000
 
ion      s     py     pz     px    dxy    dyz    dz2    dxz  x2-y2    tot
    1  0.000  0.000  0.006  0.001  0.096  0.020  0.000  0.061  0.032  0.216
    2  0.010  0.003  0.000  0.009  0.009  0.004  0.045  0.013  0.003  0.096
    3  0.008  0.042  0.000  0.126  0.000  0.000  0.001  0.001  0.000  0.178
    4  0.008  0.042  0.000  0.126  0.000  0.000  0.001  0.001  0.000  0.178
tot    0.025  0.087  0.006  0.261  0.106  0.025  0.047  0.075  0.035  0.668
 
band    19 # energy    6.30087733 # occ.  0.99999922
 
ion      s     py     pz     px    dxy    dyz    dz2    dxz  x2-y2    tot
    1  0.000  0.001  0.000  0.000  0.032  0.062  0.000  0.021  0.095  0.212
    2  0.000  0.011  0.000  0.004  0.006  0.025  0.000  0.008  0.017  0.069
    3  0.000  0.148  0.000  0.049  0.000  0.001  0.000  0.000  0.001  0.198
    4  0.000  0.148  0.000  0.049  0.000  0.001  0.000  0.000  0.001  0.198
tot    0.000  0.307  0.000  0.102  0.038  0.088  0.000  0.029  0.113  0.678
 
band    20 # energy    6.97146461 # occ.  0.00000000
 
ion      s     py     pz     px    dxy    dyz    dz2    dxz  x2-y2    tot
    1  0.000  0.001  0.005  0.002  0.000  0.000  0.000  0.000  0.000  0.007
    2  0.012  0.000  0.000  0.000  0.131  0.071  0.265  0.214  0.044  0.737
    3  0.007  0.000  0.003  0.001  0.003  0.000  0.002  0.000  0.001  0.018
    4  0.007  0.000  0.003  0.001  0.003  0.000  0.002  0.000  0.001  0.018
tot    0.027  0.001  0.012  0.003  0.136  0.072  0.269  0.215  0.045  0.780
 
band    21 # energy    7.08257492 # occ.  0.00000000
 
ion      s     py     pz     px    dxy    dyz    dz2    dxz  x2-y2    tot
    1  0.000  0.002  0.000  0.001  0.002  0.005  0.000  0.002  0.007  0.018
    2  0.000  0.001  0.000  0.000  0.072  0.343  0.000  0.114  0.215  0.745
    3  0.000  0.015  0.000  0.005  0.001  0.000  0.000  0.000  0.004  0.025
    4  0.000  0.015  0.000  0.005  0.001  0.000  0.000  0.000  0.004  0.025
tot    0.000  0.032  0.000  0.011  0.076  0.348  0.000  0.116  0.229  0.813
 
band    22 # energy    7.14941743 # occ.  0.00000000
 
ion      s     py     pz     px    dxy    dyz    dz2    dxz  x2-y2    tot
    1  0.000  0.000  0.003  0.000  0.011  0.002  0.000  0.006  0.004  0.026
    2  0.010  0.001  0.000  0.002  0.087  0.047  0.342  0.140  0.029  0.657
    3  0.005  0.010  0.006  0.029  0.001  0.000  0.002  0.000  0.000  0.053
    4  0.005  0.010  0.006  0.029  0.001  0.000  0.002  0.000  0.000  0.053
tot    0.020  0.020  0.015  0.060  0.100  0.049  0.347  0.146  0.033  0.790
 
band    23 # energy    8.02738194 # occ.  0.00000000
 
ion      s     py     pz     px    dxy    dyz    dz2    dxz  x2-y2    tot
    1  0.012  0.004  0.000  0.013  0.000  0.000  0.005  0.001  0.000  0.036
    2  0.000  0.000  0.004  0.000  0.262  0.065  0.000  0.196  0.087  0.615
    3  0.007  0.016  0.004  0.049  0.000  0.001  0.000  0.004  0.000  0.082
    4  0.007  0.016  0.004  0.049  0.000  0.001  0.000  0.004  0.000  0.082
tot    0.027  0.037  0.011  0.111  0.262  0.068  0.006  0.205  0.087  0.815
 
band    24 # energy    8.17154440 # occ.  0.00000000
 
ion      s     py     pz     px    dxy    dyz    dz2    dxz  x2-y2    tot
    1  0.000  0.015  0.000  0.005  0.000  0.001  0.000  0.000  0.000  0.021
    2  0.000  0.000  0.000  0.000  0.092  0.199  0.000  0.066  0.275  0.633
    3  0.000  0.063  0.000  0.021  0.000  0.004  0.000  0.001  0.000  0.089
    4  0.000  0.063  0.000  0.021  0.000  0.004  0.000  0.001  0.000  0.089
tot    0.000  0.141  0.000  0.047  0.092  0.208  0.000  0.069  0.276  0.833
 

 k-point    19 :   -0.02631579 0.00000000 0.50000000     weight = 0.02500000

band     1 # energy  -44.23126765 # occ.  1.00000000
 
ion      s     py     pz     px    dxy    dyz    dz2    dxz  x2-y2    tot
    1  0.000  0.141  0.000  0.854  0.000  0.000  0.000  0.000  0.000  0.995
    2  0.000  0.000  0.000  0.000  0.000  0.000  0.000  0.000  0.000  0.000
    3  0.000  0.000  0.000  0.000  0.000  0.000  0.000  0.000  0.000  0.000
    4  0.000  0.000  0.000  0.000  0.000  0.000  0.000  0.000  0.000  0.000
tot    0.000  0.141  0.000  0.854  0.000  0.000  0.000  0.000  0.000  0.995
 
band     2 # energy  -44.23125493 # occ.  1.00000000
 
ion      s     py     pz     px    dxy    dyz    dz2    dxz  x2-y2    tot
    1  0.000  0.854  0.000  0.141  0.000  0.000  0.000  0.000  0.000  0.995
    2  0.000  0.000  0.000  0.000  0.000  0.000  0.000  0.000  0.000  0.000
    3  0.000  0.000  0.000  0.000  0.000  0.000  0.000  0.000  0.000  0.000
    4  0.000  0.000  0.000  0.000  0.000  0.000  0.000  0.000  0.000  0.000
tot    0.000  0.854  0.000  0.141  0.000  0.000  0.000  0.000  0.000  0.995
 
band     3 # energy  -44.22830273 # occ.  1.00000000
 
ion      s     py     pz     px    dxy    dyz    dz2    dxz  x2-y2    tot
    1  0.000  0.000  0.995  0.000  0.000  0.000  0.000  0.000  0.000  0.995
    2  0.000  0.000  0.000  0.000  0.000  0.000  0.000  0.000  0.000  0.000
    3  0.000  0.000  0.000  0.000  0.000  0.000  0.000  0.000  0.000  0.000
    4  0.000  0.000  0.000  0.000  0.000  0.000  0.000  0.000  0.000  0.000
tot    0.000  0.000  0.995  0.000  0.000  0.000  0.000  0.000  0.000  0.995
 
band     4 # energy  -39.85063293 # occ.  1.00000000
 
ion      s     py     pz     px    dxy    dyz    dz2    dxz  x2-y2    tot
    1  0.000  0.000  0.000  0.000  0.000  0.000  0.000  0.000  0.000  0.000
    2  0.000  0.000  0.995  0.000  0.000  0.000  0.000  0.000  0.000  0.995
    3  0.000  0.000  0.000  0.000  0.000  0.000  0.000  0.000  0.000  0.000
    4  0.000  0.000  0.000  0.000  0.000  0.000  0.000  0.000  0.000  0.000
tot    0.000  0.000  0.995  0.000  0.000  0.000  0.000  0.000  0.000  0.995
 
band     5 # energy  -39.84362454 # occ.  1.00000000
 
ion      s     py     pz     px    dxy    dyz    dz2    dxz  x2-y2    tot
    1  0.000  0.000  0.000  0.000  0.000  0.000  0.000  0.000  0.000  0.000
    2  0.000  0.135  0.000  0.860  0.000  0.000  0.000  0.000  0.000  0.996
    3  0.000  0.000  0.000  0.000  0.000  0.000  0.000  0.000  0.000  0.000
    4  0.000  0.000  0.000  0.000  0.000  0.000  0.000  0.000  0.000  0.000
tot    0.000  0.135  0.000  0.860  0.000  0.000  0.000  0.000  0.000  0.996
 
band     6 # energy  -39.84360612 # occ.  1.00000000
 
ion      s     py     pz     px    dxy    dyz    dz2    dxz  x2-y2    tot
    1  0.000  0.000  0.000  0.000  0.000  0.000  0.000  0.000  0.000  0.000
    2  0.000  0.860  0.000  0.135  0.000  0.000  0.000  0.000  0.000  0.996
    3  0.000  0.000  0.000  0.000  0.000  0.000  0.000  0.000  0.000  0.000
    4  0.000  0.000  0.000  0.000  0.000  0.000  0.000  0.000  0.000  0.000
tot    0.000  0.860  0.000  0.135  0.000  0.000  0.000  0.000  0.000  0.996
 
band     7 # energy   -5.48772085 # occ.  1.00000000
 
ion      s     py     pz     px    dxy    dyz    dz2    dxz  x2-y2    tot
    1  0.030  0.000  0.000  0.000  0.000  0.000  0.000  0.000  0.000  0.030
    2  0.000  0.000  0.005  0.000  0.000  0.000  0.000  0.000  0.000  0.005
    3  0.288  0.000  0.001  0.000  0.000  0.000  0.000  0.000  0.000  0.290
    4  0.288  0.000  0.001  0.000  0.000  0.000  0.000  0.000  0.000  0.290
tot    0.607  0.000  0.007  0.000  0.000  0.000  0.000  0.000  0.000  0.614
 
band     8 # energy   -5.44211452 # occ.  1.00000000
 
ion      s     py     pz     px    dxy    dyz    dz2    dxz  x2-y2    tot
    1  0.000  0.000  0.006  0.000  0.000  0.000  0.000  0.000  0.000  0.006
    2  0.024  0.000  0.000  0.000  0.000  0.000  0.000  0.000  0.000  0.024
    3  0.293  0.000  0.001  0.000  0.000  0.000  0.000  0.000  0.000  0.294
    4  0.293  0.000  0.001  0.000  0.000  0.000  0.000  0.000  0.000  0.294
tot    0.609  0.000  0.008  0.000  0.000  0.000  0.000  0.000  0.000  0.618
 
band     9 # energy    2.15422885 # occ.  1.00000000
 
ion      s     py     pz     px    dxy    dyz    dz2    dxz  x2-y2    tot
    1  0.051  0.000  0.000  0.000  0.000  0.000  0.290  0.000  0.000  0.340
    2  0.000  0.000  0.008  0.000  0.000  0.000  0.000  0.000  0.000  0.008
    3  0.019  0.000  0.094  0.000  0.000  0.000  0.001  0.000  0.000  0.114
    4  0.019  0.000  0.094  0.000  0.000  0.000  0.001  0.000  0.000  0.114
tot    0.088  0.000  0.197  0.000  0.000  0.000  0.292  0.000  0.000  0.577
 
band    10 # energy    2.63053258 # occ.  1.00000000
 
ion      s     py     pz     px    dxy    dyz    dz2    dxz  x2-y2    tot
    1  0.000  0.000  0.003  0.000  0.223  0.038  0.000  0.115  0.074  0.453
    2  0.024  0.000  0.000  0.000  0.000  0.000  0.011  0.000  0.000  0.035
    3  0.009  0.008  0.054  0.024  0.000  0.000  0.000  0.001  0.000  0.097
    4  0.009  0.008  0.054  0.024  0.000  0.000  0.000  0.001  0.000  0.097
tot    0.043  0.016  0.111  0.049  0.223  0.039  0.011  0.116  0.074  0.682
 
band    11 # energy    2.71492875 # occ.  1.00000000
 
ion      s     py     pz     px    dxy    dyz    dz2    dxz  x2-y2    tot
    1  0.000  0.000  0.000  0.000  0.118  0.174  0.000  0.058  0.355  0.705
    2  0.000  0.001  0.000  0.000  0.000  0.000  0.000  0.000  0.000  0.001
    3  0.000  0.037  0.000  0.012  0.000  0.001  0.000  0.000  0.000  0.051
    4  0.000  0.037  0.000  0.012  0.000  0.001  0.000  0.000  0.000  0.051
tot    0.000  0.075  0.000  0.025  0.119  0.176  0.000  0.059  0.356  0.808
 
band    12 # energy    2.85938377 # occ.  1.00000000
 
ion      s     py     pz     px    dxy    dyz    dz2    dxz  x2-y2    tot
    1  0.000  0.000  0.009  0.000  0.136  0.018  0.000  0.054  0.045  0.263
    2  0.038  0.000  0.000  0.001  0.000  0.000  0.025  0.000  0.000  0.065
    3  0.015  0.004  0.096  0.013  0.000  0.000  0.001  0.000  0.000  0.130
    4  0.015  0.004  0.096  0.013  0.000  0.000  0.001  0.000  0.000  0.130
tot    0.069  0.009  0.202  0.026  0.137  0.018  0.027  0.055  0.046  0.588
 
band    13 # energy    3.30198056 # occ.  1.00000000
 
ion      s     py     pz     px    dxy    dyz    dz2    dxz  x2-y2    tot
    1  0.000  0.000  0.000  0.000  0.219  0.150  0.000  0.450  0.073  0.893
    2  0.000  0.000  0.000  0.000  0.000  0.000  0.000  0.000  0.000  0.001
    3  0.000  0.000  0.000  0.001  0.001  0.000  0.000  0.000  0.000  0.003
    4  0.000  0.000  0.000  0.001  0.001  0.000  0.000  0.000  0.000  0.003
tot    0.000  0.001  0.000  0.002  0.222  0.150  0.000  0.451  0.074  0.899
 
band    14 # energy    3.30282457 # occ.  1.00000000
 
ion      s     py     pz     px    dxy    dyz    dz2    dxz  x2-y2    tot
    1  0.000  0.000  0.000  0.000  0.075  0.446  0.000  0.148  0.225  0.894
    2  0.000  0.000  0.000  0.000  0.000  0.000  0.000  0.000  0.000  0.001
    3  0.000  0.001  0.000  0.000  0.000  0.000  0.000  0.000  0.001  0.002
    4  0.000  0.001  0.000  0.000  0.000  0.000  0.000  0.000  0.001  0.002
tot    0.000  0.002  0.000  0.001  0.076  0.446  0.000  0.148  0.227  0.899
 
band    15 # energy    3.77040866 # occ.  1.00000000
 
ion      s     py     pz     px    dxy    dyz    dz2    dxz  x2-y2    tot
    1  0.054  0.000  0.000  0.000  0.000  0.000  0.566  0.000  0.000  0.621
    2  0.000  0.000  0.000  0.000  0.004  0.001  0.000  0.003  0.001  0.008
    3  0.020  0.002  0.048  0.005  0.000  0.000  0.000  0.000  0.000  0.075
    4  0.020  0.002  0.048  0.005  0.000  0.000  0.000  0.000  0.000  0.075
tot    0.095  0.003  0.095  0.010  0.004  0.001  0.567  0.003  0.001  0.780
 
band    16 # energy    4.51130592 # occ.  1.00000000
 
ion      s     py     pz     px    dxy    dyz    dz2    dxz  x2-y2    tot
    1  0.000  0.008  0.000  0.003  0.000  0.001  0.000  0.000  0.001  0.013
    2  0.000  0.000  0.000  0.000  0.036  0.071  0.000  0.024  0.108  0.239
    3  0.000  0.133  0.000  0.044  0.000  0.001  0.000  0.000  0.000  0.179
    4  0.000  0.133  0.000  0.044  0.000  0.001  0.000  0.000  0.000  0.179
tot    0.000  0.274  0.000  0.091  0.037  0.074  0.000  0.025  0.110  0.610
 
band    17 # energy    4.53019267 # occ.  1.00000000
 
ion      s     py     pz     px    dxy    dyz    dz2    dxz  x2-y2    tot
    1  0.001  0.003  0.000  0.008  0.001  0.000  0.021  0.001  0.000  0.035
    2  0.000  0.000  0.001  0.000  0.104  0.022  0.000  0.067  0.035  0.228
    3  0.000  0.043  0.004  0.128  0.000  0.000  0.000  0.001  0.000  0.176
    4  0.000  0.043  0.004  0.128  0.000  0.000  0.000  0.001  0.000  0.176
tot    0.002  0.088  0.008  0.263  0.105  0.023  0.021  0.069  0.035  0.615
 
band    18 # energy    6.30581295 # occ.  0.99999845
 
ion      s     py     pz     px    dxy    dyz    dz2    dxz  x2-y2    tot
    1  0.000  0.000  0.002  0.000  0.098  0.021  0.000  0.062  0.033  0.216
    2  0.004  0.003  0.000  0.010  0.004  0.002  0.027  0.007  0.001  0.059
    3  0.003  0.049  0.000  0.147  0.000  0.000  0.000  0.000  0.000  0.200
    4  0.003  0.049  0.000  0.147  0.000  0.000  0.000  0.000  0.000  0.200
tot    0.011  0.101  0.002  0.304  0.103  0.023  0.028  0.069  0.034  0.676
 
band    19 # energy    6.37212817 # occ.  0.99735305
 
ion      s     py     pz     px    dxy    dyz    dz2    dxz  x2-y2    tot
    1  0.000  0.000  0.000  0.000  0.034  0.064  0.000  0.021  0.101  0.220
    2  0.000  0.011  0.000  0.004  0.002  0.009  0.000  0.003  0.006  0.034
    3  0.000  0.159  0.000  0.053  0.000  0.000  0.000  0.000  0.000  0.212
    4  0.000  0.159  0.000  0.053  0.000  0.000  0.000  0.000  0.000  0.212
tot    0.000  0.329  0.000  0.110  0.036  0.074  0.000  0.025  0.107  0.679
 
band    20 # energy    6.96918329 # occ.  0.00000000
 
ion      s     py     pz     px    dxy    dyz    dz2    dxz  x2-y2    tot
    1  0.000  0.000  0.008  0.001  0.001  0.000  0.000  0.001  0.000  0.012
    2  0.021  0.000  0.000  0.000  0.060  0.033  0.459  0.099  0.020  0.692
    3  0.013  0.001  0.006  0.004  0.001  0.000  0.004  0.000  0.000  0.029
    4  0.013  0.001  0.006  0.004  0.001  0.000  0.004  0.000  0.000  0.029
tot    0.047  0.003  0.020  0.008  0.063  0.033  0.467  0.100  0.021  0.762
 
band    21 # energy    7.02648103 # occ.  0.00000000
 
ion      s     py     pz     px    dxy    dyz    dz2    dxz  x2-y2    tot
    1  0.000  0.002  0.000  0.001  0.001  0.002  0.000  0.001  0.003  0.009
    2  0.000  0.000  0.000  0.000  0.073  0.362  0.000  0.121  0.220  0.776
    3  0.000  0.005  0.000  0.002  0.001  0.000  0.000  0.000  0.004  0.013
    4  0.000  0.005  0.000  0.002  0.001  0.000  0.000  0.000  0.004  0.013
tot    0.000  0.013  0.000  0.004  0.077  0.365  0.000  0.122  0.230  0.810
 
band    22 # energy    7.03682938 # occ.  0.00000000
 
ion      s     py     pz     px    dxy    dyz    dz2    dxz  x2-y2    tot
    1  0.000  0.001  0.002  0.002  0.005  0.001  0.000  0.003  0.002  0.015
    2  0.006  0.000  0.000  0.001  0.160  0.088  0.153  0.265  0.053  0.727
    3  0.003  0.004  0.002  0.012  0.003  0.000  0.001  0.000  0.001  0.027
    4  0.003  0.004  0.002  0.012  0.003  0.000  0.001  0.000  0.001  0.027
tot    0.013  0.009  0.006  0.026  0.171  0.090  0.155  0.269  0.057  0.795
 
band    23 # energy    8.15059383 # occ.  0.00000000
 
ion      s     py     pz     px    dxy    dyz    dz2    dxz  x2-y2    tot
    1  0.004  0.005  0.000  0.014  0.000  0.000  0.002  0.000  0.000  0.025
    2  0.000  0.000  0.001  0.000  0.272  0.065  0.000  0.194  0.091  0.623
    3  0.002  0.020  0.001  0.060  0.000  0.001  0.000  0.004  0.000  0.089
    4  0.002  0.020  0.001  0.060  0.000  0.001  0.000  0.004  0.000  0.089
tot    0.009  0.045  0.004  0.135  0.273  0.067  0.002  0.202  0.091  0.827
 
band    24 # energy    8.19207797 # occ.  0.00000000
 
ion      s     py     pz     px    dxy    dyz    dz2    dxz  x2-y2    tot
    1  0.000  0.015  0.000  0.005  0.000  0.000  0.000  0.000  0.000  0.020
    2  0.000  0.000  0.000  0.000  0.092  0.196  0.000  0.065  0.277  0.631
    3  0.000  0.065  0.000  0.022  0.000  0.004  0.000  0.001  0.000  0.091
    4  0.000  0.065  0.000  0.022  0.000  0.004  0.000  0.001  0.000  0.091
tot    0.000  0.144  0.000  0.048  0.092  0.204  0.000  0.068  0.277  0.834
 

 k-point    20 :   -0.00000000 0.00000000 0.50000000     weight = 0.02500000

band     1 # energy  -44.23125450 # occ.  1.00000000
 
ion      s     py     pz     px    dxy    dyz    dz2    dxz  x2-y2    tot
    1  0.000  0.246  0.000  0.749  0.000  0.000  0.000  0.000  0.000  0.995
    2  0.000  0.000  0.000  0.000  0.000  0.000  0.000  0.000  0.000  0.000
    3  0.000  0.000  0.000  0.000  0.000  0.000  0.000  0.000  0.000  0.000
    4  0.000  0.000  0.000  0.000  0.000  0.000  0.000  0.000  0.000  0.000
tot    0.000  0.246  0.000  0.749  0.000  0.000  0.000  0.000  0.000  0.995
 
band     2 # energy  -44.23125052 # occ.  1.00000000
 
ion      s     py     pz     px    dxy    dyz    dz2    dxz  x2-y2    tot
    1  0.000  0.749  0.000  0.246  0.000  0.000  0.000  0.000  0.000  0.995
    2  0.000  0.000  0.000  0.000  0.000  0.000  0.000  0.000  0.000  0.000
    3  0.000  0.000  0.000  0.000  0.000  0.000  0.000  0.000  0.000  0.000
    4  0.000  0.000  0.000  0.000  0.000  0.000  0.000  0.000  0.000  0.000
tot    0.000  0.749  0.000  0.246  0.000  0.000  0.000  0.000  0.000  0.995
 
band     3 # energy  -44.22829755 # occ.  1.00000000
 
ion      s     py     pz     px    dxy    dyz    dz2    dxz  x2-y2    tot
    1  0.000  0.000  0.995  0.000  0.000  0.000  0.000  0.000  0.000  0.995
    2  0.000  0.000  0.000  0.000  0.000  0.000  0.000  0.000  0.000  0.000
    3  0.000  0.000  0.000  0.000  0.000  0.000  0.000  0.000  0.000  0.000
    4  0.000  0.000  0.000  0.000  0.000  0.000  0.000  0.000  0.000  0.000
tot    0.000  0.000  0.995  0.000  0.000  0.000  0.000  0.000  0.000  0.995
 
band     4 # energy  -39.85062728 # occ.  1.00000000
 
ion      s     py     pz     px    dxy    dyz    dz2    dxz  x2-y2    tot
    1  0.000  0.000  0.000  0.000  0.000  0.000  0.000  0.000  0.000  0.000
    2  0.000  0.000  0.995  0.000  0.000  0.000  0.000  0.000  0.000  0.995
    3  0.000  0.000  0.000  0.000  0.000  0.000  0.000  0.000  0.000  0.000
    4  0.000  0.000  0.000  0.000  0.000  0.000  0.000  0.000  0.000  0.000
tot    0.000  0.000  0.995  0.000  0.000  0.000  0.000  0.000  0.000  0.995
 
band     5 # energy  -39.84360529 # occ.  1.00000000
 
ion      s     py     pz     px    dxy    dyz    dz2    dxz  x2-y2    tot
    1  0.000  0.000  0.000  0.000  0.000  0.000  0.000  0.000  0.000  0.000
    2  0.000  0.246  0.000  0.749  0.000  0.000  0.000  0.000  0.000  0.996
    3  0.000  0.000  0.000  0.000  0.000  0.000  0.000  0.000  0.000  0.000
    4  0.000  0.000  0.000  0.000  0.000  0.000  0.000  0.000  0.000  0.000
tot    0.000  0.246  0.000  0.749  0.000  0.000  0.000  0.000  0.000  0.996
 
band     6 # energy  -39.84359918 # occ.  1.00000000
 
ion      s     py     pz     px    dxy    dyz    dz2    dxz  x2-y2    tot
    1  0.000  0.000  0.000  0.000  0.000  0.000  0.000  0.000  0.000  0.000
    2  0.000  0.749  0.000  0.246  0.000  0.000  0.000  0.000  0.000  0.996
    3  0.000  0.000  0.000  0.000  0.000  0.000  0.000  0.000  0.000  0.000
    4  0.000  0.000  0.000  0.000  0.000  0.000  0.000  0.000  0.000  0.000
tot    0.000  0.749  0.000  0.246  0.000  0.000  0.000  0.000  0.000  0.996
 
band     7 # energy   -5.49221253 # occ.  1.00000000
 
ion      s     py     pz     px    dxy    dyz    dz2    dxz  x2-y2    tot
    1  0.030  0.000  0.000  0.000  0.000  0.000  0.000  0.000  0.000  0.030
    2  0.000  0.000  0.005  0.000  0.000  0.000  0.000  0.000  0.000  0.005
    3  0.288  0.000  0.001  0.000  0.000  0.000  0.000  0.000  0.000  0.290
    4  0.288  0.000  0.001  0.000  0.000  0.000  0.000  0.000  0.000  0.290
tot    0.607  0.000  0.007  0.000  0.000  0.000  0.000  0.000  0.000  0.614
 
band     8 # energy   -5.44636655 # occ.  1.00000000
 
ion      s     py     pz     px    dxy    dyz    dz2    dxz  x2-y2    tot
    1  0.000  0.000  0.006  0.000  0.000  0.000  0.000  0.000  0.000  0.006
    2  0.024  0.000  0.000  0.000  0.000  0.000  0.000  0.000  0.000  0.024
    3  0.292  0.000  0.001  0.000  0.000  0.000  0.000  0.000  0.000  0.294
    4  0.292  0.000  0.001  0.000  0.000  0.000  0.000  0.000  0.000  0.294
tot    0.609  0.000  0.008  0.000  0.000  0.000  0.000  0.000  0.000  0.617
 
band     9 # energy    2.15224808 # occ.  1.00000000
 
ion      s     py     pz     px    dxy    dyz    dz2    dxz  x2-y2    tot
    1  0.051  0.000  0.000  0.000  0.000  0.000  0.291  0.000  0.000  0.342
    2  0.000  0.000  0.008  0.000  0.000  0.000  0.000  0.000  0.000  0.008
    3  0.019  0.000  0.094  0.000  0.000  0.000  0.001  0.000  0.000  0.114
    4  0.019  0.000  0.094  0.000  0.000  0.000  0.001  0.000  0.000  0.114
tot    0.088  0.000  0.197  0.000  0.000  0.000  0.293  0.000  0.000  0.578
 
band    10 # energy    2.71413070 # occ.  1.00000000
 
ion      s     py     pz     px    dxy    dyz    dz2    dxz  x2-y2    tot
    1  0.000  0.000  0.000  0.000  0.363  0.055  0.000  0.174  0.114  0.705
    2  0.000  0.000  0.000  0.001  0.000  0.000  0.000  0.000  0.000  0.001
    3  0.000  0.012  0.000  0.037  0.000  0.000  0.000  0.001  0.000  0.051
    4  0.000  0.012  0.000  0.037  0.000  0.000  0.000  0.001  0.000  0.051
tot    0.000  0.024  0.000  0.076  0.363  0.055  0.000  0.177  0.114  0.808
 
band    11 # energy    2.71413469 # occ.  1.00000000
 
ion      s     py     pz     px    dxy    dyz    dz2    dxz  x2-y2    tot
    1  0.000  0.000  0.000  0.000  0.114  0.174  0.000  0.055  0.363  0.705
    2  0.000  0.001  0.000  0.000  0.000  0.000  0.000  0.000  0.000  0.001
    3  0.000  0.037  0.000  0.012  0.000  0.001  0.000  0.000  0.000  0.051
    4  0.000  0.037  0.000  0.012  0.000  0.001  0.000  0.000  0.000  0.051
tot    0.000  0.076  0.000  0.024  0.114  0.177  0.000  0.055  0.363  0.808
 
band    12 # energy    2.77320064 # occ.  1.00000000
 
ion      s     py     pz     px    dxy    dyz    dz2    dxz  x2-y2    tot
    1  0.000  0.000  0.013  0.000  0.000  0.000  0.000  0.000  0.000  0.013
    2  0.062  0.000  0.000  0.000  0.000  0.000  0.036  0.000  0.000  0.098
    3  0.025  0.000  0.150  0.000  0.000  0.000  0.001  0.000  0.000  0.176
    4  0.025  0.000  0.150  0.000  0.000  0.000  0.001  0.000  0.000  0.176
tot    0.112  0.000  0.313  0.000  0.000  0.000  0.037  0.000  0.000  0.462
 
band    13 # energy    3.30504191 # occ.  1.00000000
 
ion      s     py     pz     px    dxy    dyz    dz2    dxz  x2-y2    tot
    1  0.000  0.000  0.000  0.000  0.234  0.129  0.000  0.470  0.064  0.896
    2  0.000  0.000  0.000  0.000  0.000  0.000  0.000  0.000  0.000  0.000
    3  0.000  0.000  0.000  0.000  0.001  0.000  0.000  0.000  0.000  0.002
    4  0.000  0.000  0.000  0.000  0.001  0.000  0.000  0.000  0.000  0.002
tot    0.000  0.000  0.000  0.001  0.236  0.129  0.000  0.470  0.065  0.900
 
band    14 # energy    3.30504252 # occ.  1.00000000
 
ion      s     py     pz     px    dxy    dyz    dz2    dxz  x2-y2    tot
    1  0.000  0.000  0.000  0.000  0.064  0.470  0.000  0.129  0.234  0.896
    2  0.000  0.000  0.000  0.000  0.000  0.000  0.000  0.000  0.000  0.000
    3  0.000  0.000  0.000  0.000  0.000  0.000  0.000  0.000  0.001  0.002
    4  0.000  0.000  0.000  0.000  0.000  0.000  0.000  0.000  0.001  0.002
tot    0.000  0.001  0.000  0.000  0.065  0.470  0.000  0.129  0.236  0.900
 
band    15 # energy    3.79910307 # occ.  1.00000000
 
ion      s     py     pz     px    dxy    dyz    dz2    dxz  x2-y2    tot
    1  0.056  0.000  0.000  0.000  0.000  0.000  0.585  0.000  0.000  0.641
    2  0.000  0.000  0.000  0.000  0.000  0.000  0.000  0.000  0.000  0.000
    3  0.021  0.000  0.051  0.000  0.000  0.000  0.000  0.000  0.000  0.073
    4  0.021  0.000  0.051  0.000  0.000  0.000  0.000  0.000  0.000  0.073
tot    0.098  0.000  0.103  0.000  0.000  0.000  0.586  0.000  0.000  0.787
 
band    16 # energy    4.51130382 # occ.  1.00000000
 
ion      s     py     pz     px    dxy    dyz    dz2    dxz  x2-y2    tot
    1  0.000  0.002  0.000  0.008  0.000  0.000  0.000  0.000  0.000  0.010
    2  0.000  0.000  0.000  0.000  0.114  0.021  0.000  0.074  0.032  0.240
    3  0.000  0.039  0.000  0.138  0.000  0.000  0.000  0.001  0.000  0.179
    4  0.000  0.039  0.000  0.138  0.000  0.000  0.000  0.001  0.000  0.179
tot    0.000  0.081  0.000  0.284  0.114  0.021  0.000  0.075  0.033  0.609
 
band    17 # energy    4.51130656 # occ.  1.00000000
 
ion      s     py     pz     px    dxy    dyz    dz2    dxz  x2-y2    tot
    1  0.000  0.008  0.000  0.002  0.000  0.000  0.000  0.000  0.000  0.010
    2  0.000  0.000  0.000  0.000  0.032  0.074  0.000  0.021  0.114  0.240
    3  0.000  0.138  0.000  0.039  0.000  0.001  0.000  0.000  0.000  0.179
    4  0.000  0.138  0.000  0.039  0.000  0.001  0.000  0.000  0.000  0.179
tot    0.000  0.284  0.000  0.081  0.033  0.075  0.000  0.021  0.114  0.609
 
band    18 # energy    6.39953389 # occ.  0.97796548
 
ion      s     py     pz     px    dxy    dyz    dz2    dxz  x2-y2    tot
    1  0.000  0.000  0.000  0.000  0.105  0.021  0.000  0.065  0.034  0.225
    2  0.000  0.004  0.000  0.012  0.000  0.000  0.000  0.000  0.000  0.015
    3  0.000  0.054  0.000  0.165  0.000  0.000  0.000  0.000  0.000  0.220
    4  0.000  0.054  0.000  0.165  0.000  0.000  0.000  0.000  0.000  0.220
tot    0.000  0.111  0.000  0.342  0.105  0.021  0.000  0.066  0.034  0.679
 
band    19 # energy    6.39953481 # occ.  0.97796412
 
ion      s     py     pz     px    dxy    dyz    dz2    dxz  x2-y2    tot
    1  0.000  0.000  0.000  0.000  0.034  0.065  0.000  0.021  0.105  0.225
    2  0.000  0.012  0.000  0.004  0.000  0.000  0.000  0.000  0.000  0.015
    3  0.000  0.165  0.000  0.054  0.000  0.000  0.000  0.000  0.000  0.220
    4  0.000  0.165  0.000  0.054  0.000  0.000  0.000  0.000  0.000  0.220
tot    0.000  0.342  0.000  0.111  0.034  0.066  0.000  0.021  0.105  0.679
 
band    20 # energy    6.94044915 # occ.  0.00000000
 
ion      s     py     pz     px    dxy    dyz    dz2    dxz  x2-y2    tot
    1  0.000  0.000  0.013  0.000  0.000  0.000  0.000  0.000  0.000  0.013
    2  0.031  0.000  0.000  0.000  0.000  0.000  0.634  0.000  0.000  0.665
    3  0.020  0.000  0.007  0.000  0.000  0.000  0.006  0.000  0.000  0.033
    4  0.020  0.000  0.007  0.000  0.000  0.000  0.006  0.000  0.000  0.033
tot    0.071  0.000  0.027  0.000  0.000  0.000  0.645  0.000  0.000  0.743
 
band    21 # energy    7.00421103 # occ.  0.00000000
 
ion      s     py     pz     px    dxy    dyz    dz2    dxz  x2-y2    tot
    1  0.000  0.003  0.000  0.001  0.000  0.000  0.000  0.000  0.000  0.004
    2  0.000  0.000  0.000  0.000  0.065  0.387  0.000  0.109  0.232  0.794
    3  0.000  0.000  0.000  0.000  0.001  0.000  0.000  0.000  0.004  0.006
    4  0.000  0.000  0.000  0.000  0.001  0.000  0.000  0.000  0.004  0.006
tot    0.000  0.003  0.000  0.001  0.068  0.388  0.000  0.109  0.241  0.810
 
band    22 # energy    7.00421172 # occ.  0.00000000
 
ion      s     py     pz     px    dxy    dyz    dz2    dxz  x2-y2    tot
    1  0.000  0.001  0.000  0.003  0.000  0.000  0.000  0.000  0.000  0.004
    2  0.000  0.000  0.000  0.000  0.232  0.109  0.000  0.387  0.065  0.794
    3  0.000  0.000  0.000  0.000  0.004  0.000  0.000  0.000  0.001  0.006
    4  0.000  0.000  0.000  0.000  0.004  0.000  0.000  0.000  0.001  0.006
tot    0.000  0.001  0.000  0.003  0.241  0.109  0.000  0.388  0.068  0.810
 
band    23 # energy    8.19912396 # occ.  0.00000000
 
ion      s     py     pz     px    dxy    dyz    dz2    dxz  x2-y2    tot
    1  0.000  0.005  0.000  0.015  0.000  0.000  0.000  0.000  0.000  0.020
    2  0.000  0.000  0.000  0.000  0.284  0.061  0.000  0.199  0.087  0.630
    3  0.000  0.020  0.000  0.067  0.000  0.001  0.000  0.004  0.000  0.092
    4  0.000  0.020  0.000  0.067  0.000  0.001  0.000  0.004  0.000  0.092
tot    0.000  0.046  0.000  0.148  0.284  0.063  0.000  0.207  0.087  0.835
 
band    24 # energy    8.19912567 # occ.  0.00000000
 
ion      s     py     pz     px    dxy    dyz    dz2    dxz  x2-y2    tot
    1  0.000  0.015  0.000  0.005  0.000  0.000  0.000  0.000  0.000  0.020
    2  0.000  0.000  0.000  0.000  0.087  0.199  0.000  0.061  0.284  0.630
    3  0.000  0.067  0.000  0.020  0.000  0.004  0.000  0.001  0.000  0.092
    4  0.000  0.067  0.000  0.020  0.000  0.004  0.000  0.001  0.000  0.092
tot    0.000  0.148  0.000  0.046  0.087  0.207  0.000  0.063  0.284  0.835
 

 k-point    21 :    0.00000000 0.00000000 0.50000000     weight = 0.02500000

band     1 # energy  -44.23125450 # occ.  1.00000000
 
ion      s     py     pz     px    dxy    dyz    dz2    dxz  x2-y2    tot
    1  0.000  0.246  0.000  0.749  0.000  0.000  0.000  0.000  0.000  0.995
    2  0.000  0.000  0.000  0.000  0.000  0.000  0.000  0.000  0.000  0.000
    3  0.000  0.000  0.000  0.000  0.000  0.000  0.000  0.000  0.000  0.000
    4  0.000  0.000  0.000  0.000  0.000  0.000  0.000  0.000  0.000  0.000
tot    0.000  0.246  0.000  0.749  0.000  0.000  0.000  0.000  0.000  0.995
 
band     2 # energy  -44.23125052 # occ.  1.00000000
 
ion      s     py     pz     px    dxy    dyz    dz2    dxz  x2-y2    tot
    1  0.000  0.749  0.000  0.246  0.000  0.000  0.000  0.000  0.000  0.995
    2  0.000  0.000  0.000  0.000  0.000  0.000  0.000  0.000  0.000  0.000
    3  0.000  0.000  0.000  0.000  0.000  0.000  0.000  0.000  0.000  0.000
    4  0.000  0.000  0.000  0.000  0.000  0.000  0.000  0.000  0.000  0.000
tot    0.000  0.749  0.000  0.246  0.000  0.000  0.000  0.000  0.000  0.995
 
band     3 # energy  -44.22829755 # occ.  1.00000000
 
ion      s     py     pz     px    dxy    dyz    dz2    dxz  x2-y2    tot
    1  0.000  0.000  0.995  0.000  0.000  0.000  0.000  0.000  0.000  0.995
    2  0.000  0.000  0.000  0.000  0.000  0.000  0.000  0.000  0.000  0.000
    3  0.000  0.000  0.000  0.000  0.000  0.000  0.000  0.000  0.000  0.000
    4  0.000  0.000  0.000  0.000  0.000  0.000  0.000  0.000  0.000  0.000
tot    0.000  0.000  0.995  0.000  0.000  0.000  0.000  0.000  0.000  0.995
 
band     4 # energy  -39.85062728 # occ.  1.00000000
 
ion      s     py     pz     px    dxy    dyz    dz2    dxz  x2-y2    tot
    1  0.000  0.000  0.000  0.000  0.000  0.000  0.000  0.000  0.000  0.000
    2  0.000  0.000  0.995  0.000  0.000  0.000  0.000  0.000  0.000  0.995
    3  0.000  0.000  0.000  0.000  0.000  0.000  0.000  0.000  0.000  0.000
    4  0.000  0.000  0.000  0.000  0.000  0.000  0.000  0.000  0.000  0.000
tot    0.000  0.000  0.995  0.000  0.000  0.000  0.000  0.000  0.000  0.995
 
band     5 # energy  -39.84360529 # occ.  1.00000000
 
ion      s     py     pz     px    dxy    dyz    dz2    dxz  x2-y2    tot
    1  0.000  0.000  0.000  0.000  0.000  0.000  0.000  0.000  0.000  0.000
    2  0.000  0.246  0.000  0.749  0.000  0.000  0.000  0.000  0.000  0.996
    3  0.000  0.000  0.000  0.000  0.000  0.000  0.000  0.000  0.000  0.000
    4  0.000  0.000  0.000  0.000  0.000  0.000  0.000  0.000  0.000  0.000
tot    0.000  0.246  0.000  0.749  0.000  0.000  0.000  0.000  0.000  0.996
 
band     6 # energy  -39.84359918 # occ.  1.00000000
 
ion      s     py     pz     px    dxy    dyz    dz2    dxz  x2-y2    tot
    1  0.000  0.000  0.000  0.000  0.000  0.000  0.000  0.000  0.000  0.000
    2  0.000  0.749  0.000  0.246  0.000  0.000  0.000  0.000  0.000  0.996
    3  0.000  0.000  0.000  0.000  0.000  0.000  0.000  0.000  0.000  0.000
    4  0.000  0.000  0.000  0.000  0.000  0.000  0.000  0.000  0.000  0.000
tot    0.000  0.749  0.000  0.246  0.000  0.000  0.000  0.000  0.000  0.996
 
band     7 # energy   -5.49221253 # occ.  1.00000000
 
ion      s     py     pz     px    dxy    dyz    dz2    dxz  x2-y2    tot
    1  0.030  0.000  0.000  0.000  0.000  0.000  0.000  0.000  0.000  0.030
    2  0.000  0.000  0.005  0.000  0.000  0.000  0.000  0.000  0.000  0.005
    3  0.288  0.000  0.001  0.000  0.000  0.000  0.000  0.000  0.000  0.290
    4  0.288  0.000  0.001  0.000  0.000  0.000  0.000  0.000  0.000  0.290
tot    0.607  0.000  0.007  0.000  0.000  0.000  0.000  0.000  0.000  0.614
 
band     8 # energy   -5.44636655 # occ.  1.00000000
 
ion      s     py     pz     px    dxy    dyz    dz2    dxz  x2-y2    tot
    1  0.000  0.000  0.006  0.000  0.000  0.000  0.000  0.000  0.000  0.006
    2  0.024  0.000  0.000  0.000  0.000  0.000  0.000  0.000  0.000  0.024
    3  0.292  0.000  0.001  0.000  0.000  0.000  0.000  0.000  0.000  0.294
    4  0.292  0.000  0.001  0.000  0.000  0.000  0.000  0.000  0.000  0.294
tot    0.609  0.000  0.008  0.000  0.000  0.000  0.000  0.000  0.000  0.617
 
band     9 # energy    2.15224808 # occ.  1.00000000
 
ion      s     py     pz     px    dxy    dyz    dz2    dxz  x2-y2    tot
    1  0.051  0.000  0.000  0.000  0.000  0.000  0.291  0.000  0.000  0.342
    2  0.000  0.000  0.008  0.000  0.000  0.000  0.000  0.000  0.000  0.008
    3  0.019  0.000  0.094  0.000  0.000  0.000  0.001  0.000  0.000  0.114
    4  0.019  0.000  0.094  0.000  0.000  0.000  0.001  0.000  0.000  0.114
tot    0.088  0.000  0.197  0.000  0.000  0.000  0.293  0.000  0.000  0.578
 
band    10 # energy    2.71413070 # occ.  1.00000000
 
ion      s     py     pz     px    dxy    dyz    dz2    dxz  x2-y2    tot
    1  0.000  0.000  0.000  0.000  0.363  0.055  0.000  0.174  0.114  0.705
    2  0.000  0.000  0.000  0.001  0.000  0.000  0.000  0.000  0.000  0.001
    3  0.000  0.012  0.000  0.037  0.000  0.000  0.000  0.001  0.000  0.051
    4  0.000  0.012  0.000  0.037  0.000  0.000  0.000  0.001  0.000  0.051
tot    0.000  0.024  0.000  0.076  0.363  0.055  0.000  0.177  0.114  0.808
 
band    11 # energy    2.71413469 # occ.  1.00000000
 
ion      s     py     pz     px    dxy    dyz    dz2    dxz  x2-y2    tot
    1  0.000  0.000  0.000  0.000  0.114  0.174  0.000  0.055  0.363  0.705
    2  0.000  0.001  0.000  0.000  0.000  0.000  0.000  0.000  0.000  0.001
    3  0.000  0.037  0.000  0.012  0.000  0.001  0.000  0.000  0.000  0.051
    4  0.000  0.037  0.000  0.012  0.000  0.001  0.000  0.000  0.000  0.051
tot    0.000  0.076  0.000  0.024  0.114  0.177  0.000  0.055  0.363  0.808
 
band    12 # energy    2.77320064 # occ.  1.00000000
 
ion      s     py     pz     px    dxy    dyz    dz2    dxz  x2-y2    tot
    1  0.000  0.000  0.013  0.000  0.000  0.000  0.000  0.000  0.000  0.013
    2  0.062  0.000  0.000  0.000  0.000  0.000  0.036  0.000  0.000  0.098
    3  0.025  0.000  0.150  0.000  0.000  0.000  0.001  0.000  0.000  0.176
    4  0.025  0.000  0.150  0.000  0.000  0.000  0.001  0.000  0.000  0.176
tot    0.112  0.000  0.313  0.000  0.000  0.000  0.037  0.000  0.000  0.462
 
band    13 # energy    3.30504191 # occ.  1.00000000
 
ion      s     py     pz     px    dxy    dyz    dz2    dxz  x2-y2    tot
    1  0.000  0.000  0.000  0.000  0.234  0.129  0.000  0.470  0.064  0.896
    2  0.000  0.000  0.000  0.000  0.000  0.000  0.000  0.000  0.000  0.000
    3  0.000  0.000  0.000  0.000  0.001  0.000  0.000  0.000  0.000  0.002
    4  0.000  0.000  0.000  0.000  0.001  0.000  0.000  0.000  0.000  0.002
tot    0.000  0.000  0.000  0.001  0.236  0.129  0.000  0.470  0.065  0.900
 
band    14 # energy    3.30504252 # occ.  1.00000000
 
ion      s     py     pz     px    dxy    dyz    dz2    dxz  x2-y2    tot
    1  0.000  0.000  0.000  0.000  0.064  0.470  0.000  0.129  0.234  0.896
    2  0.000  0.000  0.000  0.000  0.000  0.000  0.000  0.000  0.000  0.000
    3  0.000  0.000  0.000  0.000  0.000  0.000  0.000  0.000  0.001  0.002
    4  0.000  0.000  0.000  0.000  0.000  0.000  0.000  0.000  0.001  0.002
tot    0.000  0.001  0.000  0.000  0.065  0.470  0.000  0.129  0.236  0.900
 
band    15 # energy    3.79910307 # occ.  1.00000000
 
ion      s     py     pz     px    dxy    dyz    dz2    dxz  x2-y2    tot
    1  0.056  0.000  0.000  0.000  0.000  0.000  0.585  0.000  0.000  0.641
    2  0.000  0.000  0.000  0.000  0.000  0.000  0.000  0.000  0.000  0.000
    3  0.021  0.000  0.051  0.000  0.000  0.000  0.000  0.000  0.000  0.073
    4  0.021  0.000  0.051  0.000  0.000  0.000  0.000  0.000  0.000  0.073
tot    0.098  0.000  0.103  0.000  0.000  0.000  0.586  0.000  0.000  0.787
 
band    16 # energy    4.51130382 # occ.  1.00000000
 
ion      s     py     pz     px    dxy    dyz    dz2    dxz  x2-y2    tot
    1  0.000  0.002  0.000  0.008  0.000  0.000  0.000  0.000  0.000  0.010
    2  0.000  0.000  0.000  0.000  0.114  0.021  0.000  0.074  0.032  0.240
    3  0.000  0.039  0.000  0.138  0.000  0.000  0.000  0.001  0.000  0.179
    4  0.000  0.039  0.000  0.138  0.000  0.000  0.000  0.001  0.000  0.179
tot    0.000  0.081  0.000  0.284  0.114  0.021  0.000  0.075  0.033  0.609
 
band    17 # energy    4.51130656 # occ.  1.00000000
 
ion      s     py     pz     px    dxy    dyz    dz2    dxz  x2-y2    tot
    1  0.000  0.008  0.000  0.002  0.000  0.000  0.000  0.000  0.000  0.010
    2  0.000  0.000  0.000  0.000  0.032  0.074  0.000  0.021  0.114  0.240
    3  0.000  0.138  0.000  0.039  0.000  0.001  0.000  0.000  0.000  0.179
    4  0.000  0.138  0.000  0.039  0.000  0.001  0.000  0.000  0.000  0.179
tot    0.000  0.284  0.000  0.081  0.033  0.075  0.000  0.021  0.114  0.609
 
band    18 # energy    6.39953389 # occ.  0.97796548
 
ion      s     py     pz     px    dxy    dyz    dz2    dxz  x2-y2    tot
    1  0.000  0.000  0.000  0.000  0.105  0.021  0.000  0.065  0.034  0.225
    2  0.000  0.004  0.000  0.012  0.000  0.000  0.000  0.000  0.000  0.015
    3  0.000  0.054  0.000  0.165  0.000  0.000  0.000  0.000  0.000  0.220
    4  0.000  0.054  0.000  0.165  0.000  0.000  0.000  0.000  0.000  0.220
tot    0.000  0.111  0.000  0.342  0.105  0.021  0.000  0.066  0.034  0.679
 
band    19 # energy    6.39953481 # occ.  0.97796412
 
ion      s     py     pz     px    dxy    dyz    dz2    dxz  x2-y2    tot
    1  0.000  0.000  0.000  0.000  0.034  0.065  0.000  0.021  0.105  0.225
    2  0.000  0.012  0.000  0.004  0.000  0.000  0.000  0.000  0.000  0.015
    3  0.000  0.165  0.000  0.054  0.000  0.000  0.000  0.000  0.000  0.220
    4  0.000  0.165  0.000  0.054  0.000  0.000  0.000  0.000  0.000  0.220
tot    0.000  0.342  0.000  0.111  0.034  0.066  0.000  0.021  0.105  0.679
 
band    20 # energy    6.94044915 # occ.  0.00000000
 
ion      s     py     pz     px    dxy    dyz    dz2    dxz  x2-y2    tot
    1  0.000  0.000  0.013  0.000  0.000  0.000  0.000  0.000  0.000  0.013
    2  0.031  0.000  0.000  0.000  0.000  0.000  0.634  0.000  0.000  0.665
    3  0.020  0.000  0.007  0.000  0.000  0.000  0.006  0.000  0.000  0.033
    4  0.020  0.000  0.007  0.000  0.000  0.000  0.006  0.000  0.000  0.033
tot    0.071  0.000  0.027  0.000  0.000  0.000  0.645  0.000  0.000  0.743
 
band    21 # energy    7.00421103 # occ.  0.00000000
 
ion      s     py     pz     px    dxy    dyz    dz2    dxz  x2-y2    tot
    1  0.000  0.003  0.000  0.001  0.000  0.000  0.000  0.000  0.000  0.004
    2  0.000  0.000  0.000  0.000  0.065  0.387  0.000  0.109  0.232  0.794
    3  0.000  0.000  0.000  0.000  0.001  0.000  0.000  0.000  0.004  0.006
    4  0.000  0.000  0.000  0.000  0.001  0.000  0.000  0.000  0.004  0.006
tot    0.000  0.003  0.000  0.001  0.068  0.388  0.000  0.109  0.241  0.810
 
band    22 # energy    7.00421172 # occ.  0.00000000
 
ion      s     py     pz     px    dxy    dyz    dz2    dxz  x2-y2    tot
    1  0.000  0.001  0.000  0.003  0.000  0.000  0.000  0.000  0.000  0.004
    2  0.000  0.000  0.000  0.000  0.232  0.109  0.000  0.387  0.065  0.794
    3  0.000  0.000  0.000  0.000  0.004  0.000  0.000  0.000  0.001  0.006
    4  0.000  0.000  0.000  0.000  0.004  0.000  0.000  0.000  0.001  0.006
tot    0.000  0.001  0.000  0.003  0.241  0.109  0.000  0.388  0.068  0.810
 
band    23 # energy    8.19912396 # occ.  0.00000000
 
ion      s     py     pz     px    dxy    dyz    dz2    dxz  x2-y2    tot
    1  0.000  0.005  0.000  0.015  0.000  0.000  0.000  0.000  0.000  0.020
    2  0.000  0.000  0.000  0.000  0.284  0.061  0.000  0.199  0.087  0.630
    3  0.000  0.020  0.000  0.067  0.000  0.001  0.000  0.004  0.000  0.092
    4  0.000  0.020  0.000  0.067  0.000  0.001  0.000  0.004  0.000  0.092
tot    0.000  0.046  0.000  0.148  0.284  0.063  0.000  0.207  0.087  0.835
 
band    24 # energy    8.19912567 # occ.  0.00000000
 
ion      s     py     pz     px    dxy    dyz    dz2    dxz  x2-y2    tot
    1  0.000  0.015  0.000  0.005  0.000  0.000  0.000  0.000  0.000  0.020
    2  0.000  0.000  0.000  0.000  0.087  0.199  0.000  0.061  0.284  0.630
    3  0.000  0.067  0.000  0.020  0.000  0.004  0.000  0.001  0.000  0.092
    4  0.000  0.067  0.000  0.020  0.000  0.004  0.000  0.001  0.000  0.092
tot    0.000  0.148  0.000  0.046  0.087  0.207  0.000  0.063  0.284  0.835
 

 k-point    22 :    0.02631579 0.00000000 0.50000000     weight = 0.02500000

band     1 # energy  -44.23126764 # occ.  1.00000000
 
ion      s     py     pz     px    dxy    dyz    dz2    dxz  x2-y2    tot
    1  0.000  0.141  0.000  0.854  0.000  0.000  0.000  0.000  0.000  0.995
    2  0.000  0.000  0.000  0.000  0.000  0.000  0.000  0.000  0.000  0.000
    3  0.000  0.000  0.000  0.000  0.000  0.000  0.000  0.000  0.000  0.000
    4  0.000  0.000  0.000  0.000  0.000  0.000  0.000  0.000  0.000  0.000
tot    0.000  0.141  0.000  0.854  0.000  0.000  0.000  0.000  0.000  0.995
 
band     2 # energy  -44.23125493 # occ.  1.00000000
 
ion      s     py     pz     px    dxy    dyz    dz2    dxz  x2-y2    tot
    1  0.000  0.854  0.000  0.141  0.000  0.000  0.000  0.000  0.000  0.995
    2  0.000  0.000  0.000  0.000  0.000  0.000  0.000  0.000  0.000  0.000
    3  0.000  0.000  0.000  0.000  0.000  0.000  0.000  0.000  0.000  0.000
    4  0.000  0.000  0.000  0.000  0.000  0.000  0.000  0.000  0.000  0.000
tot    0.000  0.854  0.000  0.141  0.000  0.000  0.000  0.000  0.000  0.995
 
band     3 # energy  -44.22830273 # occ.  1.00000000
 
ion      s     py     pz     px    dxy    dyz    dz2    dxz  x2-y2    tot
    1  0.000  0.000  0.995  0.000  0.000  0.000  0.000  0.000  0.000  0.995
    2  0.000  0.000  0.000  0.000  0.000  0.000  0.000  0.000  0.000  0.000
    3  0.000  0.000  0.000  0.000  0.000  0.000  0.000  0.000  0.000  0.000
    4  0.000  0.000  0.000  0.000  0.000  0.000  0.000  0.000  0.000  0.000
tot    0.000  0.000  0.995  0.000  0.000  0.000  0.000  0.000  0.000  0.995
 
band     4 # energy  -39.85063293 # occ.  1.00000000
 
ion      s     py     pz     px    dxy    dyz    dz2    dxz  x2-y2    tot
    1  0.000  0.000  0.000  0.000  0.000  0.000  0.000  0.000  0.000  0.000
    2  0.000  0.000  0.995  0.000  0.000  0.000  0.000  0.000  0.000  0.995
    3  0.000  0.000  0.000  0.000  0.000  0.000  0.000  0.000  0.000  0.000
    4  0.000  0.000  0.000  0.000  0.000  0.000  0.000  0.000  0.000  0.000
tot    0.000  0.000  0.995  0.000  0.000  0.000  0.000  0.000  0.000  0.995
 
band     5 # energy  -39.84362453 # occ.  1.00000000
 
ion      s     py     pz     px    dxy    dyz    dz2    dxz  x2-y2    tot
    1  0.000  0.000  0.000  0.000  0.000  0.000  0.000  0.000  0.000  0.000
    2  0.000  0.135  0.000  0.860  0.000  0.000  0.000  0.000  0.000  0.996
    3  0.000  0.000  0.000  0.000  0.000  0.000  0.000  0.000  0.000  0.000
    4  0.000  0.000  0.000  0.000  0.000  0.000  0.000  0.000  0.000  0.000
tot    0.000  0.135  0.000  0.860  0.000  0.000  0.000  0.000  0.000  0.996
 
band     6 # energy  -39.84360612 # occ.  1.00000000
 
ion      s     py     pz     px    dxy    dyz    dz2    dxz  x2-y2    tot
    1  0.000  0.000  0.000  0.000  0.000  0.000  0.000  0.000  0.000  0.000
    2  0.000  0.860  0.000  0.135  0.000  0.000  0.000  0.000  0.000  0.996
    3  0.000  0.000  0.000  0.000  0.000  0.000  0.000  0.000  0.000  0.000
    4  0.000  0.000  0.000  0.000  0.000  0.000  0.000  0.000  0.000  0.000
tot    0.000  0.860  0.000  0.135  0.000  0.000  0.000  0.000  0.000  0.996
 
band     7 # energy   -5.48772084 # occ.  1.00000000
 
ion      s     py     pz     px    dxy    dyz    dz2    dxz  x2-y2    tot
    1  0.030  0.000  0.000  0.000  0.000  0.000  0.000  0.000  0.000  0.030
    2  0.000  0.000  0.005  0.000  0.000  0.000  0.000  0.000  0.000  0.005
    3  0.288  0.000  0.001  0.000  0.000  0.000  0.000  0.000  0.000  0.290
    4  0.288  0.000  0.001  0.000  0.000  0.000  0.000  0.000  0.000  0.290
tot    0.607  0.000  0.007  0.000  0.000  0.000  0.000  0.000  0.000  0.614
 
band     8 # energy   -5.44211452 # occ.  1.00000000
 
ion      s     py     pz     px    dxy    dyz    dz2    dxz  x2-y2    tot
    1  0.000  0.000  0.006  0.000  0.000  0.000  0.000  0.000  0.000  0.006
    2  0.024  0.000  0.000  0.000  0.000  0.000  0.000  0.000  0.000  0.024
    3  0.293  0.000  0.001  0.000  0.000  0.000  0.000  0.000  0.000  0.294
    4  0.293  0.000  0.001  0.000  0.000  0.000  0.000  0.000  0.000  0.294
tot    0.609  0.000  0.008  0.000  0.000  0.000  0.000  0.000  0.000  0.618
 
band     9 # energy    2.15422885 # occ.  1.00000000
 
ion      s     py     pz     px    dxy    dyz    dz2    dxz  x2-y2    tot
    1  0.051  0.000  0.000  0.000  0.000  0.000  0.290  0.000  0.000  0.340
    2  0.000  0.000  0.008  0.000  0.000  0.000  0.000  0.000  0.000  0.008
    3  0.019  0.000  0.094  0.000  0.000  0.000  0.001  0.000  0.000  0.114
    4  0.019  0.000  0.094  0.000  0.000  0.000  0.001  0.000  0.000  0.114
tot    0.088  0.000  0.197  0.000  0.000  0.000  0.292  0.000  0.000  0.578
 
band    10 # energy    2.63053258 # occ.  1.00000000
 
ion      s     py     pz     px    dxy    dyz    dz2    dxz  x2-y2    tot
    1  0.000  0.000  0.003  0.000  0.223  0.038  0.000  0.115  0.074  0.453
    2  0.024  0.000  0.000  0.000  0.000  0.000  0.011  0.000  0.000  0.035
    3  0.009  0.008  0.054  0.024  0.000  0.000  0.000  0.001  0.000  0.097
    4  0.009  0.008  0.054  0.024  0.000  0.000  0.000  0.001  0.000  0.097
tot    0.043  0.016  0.111  0.049  0.223  0.039  0.011  0.116  0.074  0.682
 
band    11 # energy    2.71492875 # occ.  1.00000000
 
ion      s     py     pz     px    dxy    dyz    dz2    dxz  x2-y2    tot
    1  0.000  0.000  0.000  0.000  0.118  0.174  0.000  0.058  0.355  0.705
    2  0.000  0.001  0.000  0.000  0.000  0.000  0.000  0.000  0.000  0.001
    3  0.000  0.037  0.000  0.012  0.000  0.001  0.000  0.000  0.000  0.051
    4  0.000  0.037  0.000  0.012  0.000  0.001  0.000  0.000  0.000  0.051
tot    0.000  0.075  0.000  0.025  0.119  0.176  0.000  0.059  0.356  0.808
 
band    12 # energy    2.85938377 # occ.  1.00000000
 
ion      s     py     pz     px    dxy    dyz    dz2    dxz  x2-y2    tot
    1  0.000  0.000  0.009  0.000  0.136  0.018  0.000  0.054  0.045  0.263
    2  0.038  0.000  0.000  0.001  0.000  0.000  0.025  0.000  0.000  0.065
    3  0.015  0.004  0.096  0.013  0.000  0.000  0.001  0.000  0.000  0.130
    4  0.015  0.004  0.096  0.013  0.000  0.000  0.001  0.000  0.000  0.130
tot    0.069  0.009  0.202  0.026  0.137  0.018  0.027  0.055  0.046  0.588
 
band    13 # energy    3.30198056 # occ.  1.00000000
 
ion      s     py     pz     px    dxy    dyz    dz2    dxz  x2-y2    tot
    1  0.000  0.000  0.000  0.000  0.219  0.150  0.000  0.450  0.073  0.893
    2  0.000  0.000  0.000  0.000  0.000  0.000  0.000  0.000  0.000  0.001
    3  0.000  0.000  0.000  0.001  0.001  0.000  0.000  0.000  0.000  0.003
    4  0.000  0.000  0.000  0.001  0.001  0.000  0.000  0.000  0.000  0.003
tot    0.000  0.001  0.000  0.002  0.222  0.150  0.000  0.451  0.074  0.899
 
band    14 # energy    3.30282457 # occ.  1.00000000
 
ion      s     py     pz     px    dxy    dyz    dz2    dxz  x2-y2    tot
    1  0.000  0.000  0.000  0.000  0.075  0.446  0.000  0.148  0.225  0.894
    2  0.000  0.000  0.000  0.000  0.000  0.000  0.000  0.000  0.000  0.001
    3  0.000  0.001  0.000  0.000  0.000  0.000  0.000  0.000  0.001  0.002
    4  0.000  0.001  0.000  0.000  0.000  0.000  0.000  0.000  0.001  0.002
tot    0.000  0.002  0.000  0.001  0.076  0.446  0.000  0.148  0.227  0.899
 
band    15 # energy    3.77040866 # occ.  1.00000000
 
ion      s     py     pz     px    dxy    dyz    dz2    dxz  x2-y2    tot
    1  0.054  0.000  0.000  0.000  0.000  0.000  0.566  0.000  0.000  0.621
    2  0.000  0.000  0.000  0.000  0.004  0.001  0.000  0.003  0.001  0.008
    3  0.020  0.002  0.048  0.005  0.000  0.000  0.000  0.000  0.000  0.075
    4  0.020  0.002  0.048  0.005  0.000  0.000  0.000  0.000  0.000  0.075
tot    0.095  0.003  0.095  0.010  0.004  0.001  0.567  0.003  0.001  0.780
 
band    16 # energy    4.51130592 # occ.  1.00000000
 
ion      s     py     pz     px    dxy    dyz    dz2    dxz  x2-y2    tot
    1  0.000  0.008  0.000  0.003  0.000  0.001  0.000  0.000  0.001  0.013
    2  0.000  0.000  0.000  0.000  0.036  0.071  0.000  0.024  0.108  0.239
    3  0.000  0.133  0.000  0.044  0.000  0.001  0.000  0.000  0.000  0.179
    4  0.000  0.133  0.000  0.044  0.000  0.001  0.000  0.000  0.000  0.179
tot    0.000  0.274  0.000  0.091  0.037  0.074  0.000  0.025  0.110  0.610
 
band    17 # energy    4.53019267 # occ.  1.00000000
 
ion      s     py     pz     px    dxy    dyz    dz2    dxz  x2-y2    tot
    1  0.001  0.003  0.000  0.008  0.001  0.000  0.021  0.001  0.000  0.035
    2  0.000  0.000  0.001  0.000  0.104  0.022  0.000  0.067  0.035  0.228
    3  0.000  0.043  0.004  0.128  0.000  0.000  0.000  0.001  0.000  0.176
    4  0.000  0.043  0.004  0.128  0.000  0.000  0.000  0.001  0.000  0.176
tot    0.002  0.088  0.008  0.263  0.105  0.023  0.021  0.069  0.035  0.615
 
band    18 # energy    6.30581295 # occ.  0.99999845
 
ion      s     py     pz     px    dxy    dyz    dz2    dxz  x2-y2    tot
    1  0.000  0.000  0.002  0.000  0.098  0.021  0.000  0.062  0.033  0.216
    2  0.004  0.003  0.000  0.010  0.004  0.002  0.027  0.007  0.001  0.059
    3  0.003  0.049  0.000  0.147  0.000  0.000  0.000  0.000  0.000  0.200
    4  0.003  0.049  0.000  0.147  0.000  0.000  0.000  0.000  0.000  0.200
tot    0.011  0.101  0.002  0.304  0.103  0.023  0.028  0.069  0.034  0.676
 
band    19 # energy    6.37212817 # occ.  0.99735305
 
ion      s     py     pz     px    dxy    dyz    dz2    dxz  x2-y2    tot
    1  0.000  0.000  0.000  0.000  0.034  0.064  0.000  0.021  0.101  0.220
    2  0.000  0.011  0.000  0.004  0.002  0.009  0.000  0.003  0.006  0.034
    3  0.000  0.159  0.000  0.053  0.000  0.000  0.000  0.000  0.000  0.212
    4  0.000  0.159  0.000  0.053  0.000  0.000  0.000  0.000  0.000  0.212
tot    0.000  0.329  0.000  0.110  0.036  0.074  0.000  0.025  0.107  0.679
 
band    20 # energy    6.96918329 # occ.  0.00000000
 
ion      s     py     pz     px    dxy    dyz    dz2    dxz  x2-y2    tot
    1  0.000  0.000  0.008  0.001  0.001  0.000  0.000  0.001  0.000  0.012
    2  0.021  0.000  0.000  0.000  0.060  0.033  0.459  0.099  0.020  0.692
    3  0.013  0.001  0.006  0.004  0.001  0.000  0.004  0.000  0.000  0.029
    4  0.013  0.001  0.006  0.004  0.001  0.000  0.004  0.000  0.000  0.029
tot    0.047  0.003  0.020  0.008  0.063  0.033  0.467  0.100  0.021  0.762
 
band    21 # energy    7.02648103 # occ.  0.00000000
 
ion      s     py     pz     px    dxy    dyz    dz2    dxz  x2-y2    tot
    1  0.000  0.002  0.000  0.001  0.001  0.002  0.000  0.001  0.003  0.009
    2  0.000  0.000  0.000  0.000  0.073  0.362  0.000  0.121  0.220  0.776
    3  0.000  0.005  0.000  0.002  0.001  0.000  0.000  0.000  0.004  0.013
    4  0.000  0.005  0.000  0.002  0.001  0.000  0.000  0.000  0.004  0.013
tot    0.000  0.013  0.000  0.004  0.077  0.365  0.000  0.122  0.230  0.810
 
band    22 # energy    7.03682938 # occ.  0.00000000
 
ion      s     py     pz     px    dxy    dyz    dz2    dxz  x2-y2    tot
    1  0.000  0.001  0.002  0.002  0.005  0.001  0.000  0.003  0.002  0.015
    2  0.006  0.000  0.000  0.001  0.160  0.088  0.153  0.265  0.053  0.727
    3  0.003  0.004  0.002  0.012  0.003  0.000  0.001  0.000  0.001  0.027
    4  0.003  0.004  0.002  0.012  0.003  0.000  0.001  0.000  0.001  0.027
tot    0.013  0.009  0.006  0.026  0.171  0.090  0.155  0.269  0.057  0.795
 
band    23 # energy    8.15059383 # occ.  0.00000000
 
ion      s     py     pz     px    dxy    dyz    dz2    dxz  x2-y2    tot
    1  0.004  0.005  0.000  0.014  0.000  0.000  0.002  0.000  0.000  0.025
    2  0.000  0.000  0.001  0.000  0.272  0.065  0.000  0.194  0.091  0.623
    3  0.002  0.020  0.001  0.060  0.000  0.001  0.000  0.004  0.000  0.089
    4  0.002  0.020  0.001  0.060  0.000  0.001  0.000  0.004  0.000  0.089
tot    0.009  0.045  0.004  0.135  0.273  0.067  0.002  0.202  0.091  0.827
 
band    24 # energy    8.19207797 # occ.  0.00000000
 
ion      s     py     pz     px    dxy    dyz    dz2    dxz  x2-y2    tot
    1  0.000  0.015  0.000  0.005  0.000  0.000  0.000  0.000  0.000  0.020
    2  0.000  0.000  0.000  0.000  0.092  0.196  0.000  0.065  0.277  0.631
    3  0.000  0.065  0.000  0.022  0.000  0.004  0.000  0.001  0.000  0.091
    4  0.000  0.065  0.000  0.022  0.000  0.004  0.000  0.001  0.000  0.091
tot    0.000  0.144  0.000  0.048  0.092  0.204  0.000  0.068  0.277  0.834
 

 k-point    23 :    0.05263158 0.00000000 0.50000000     weight = 0.02500000

band     1 # energy  -44.23127050 # occ.  1.00000000
 
ion      s     py     pz     px    dxy    dyz    dz2    dxz  x2-y2    tot
    1  0.000  0.102  0.000  0.893  0.000  0.000  0.000  0.000  0.000  0.995
    2  0.000  0.000  0.000  0.000  0.000  0.000  0.000  0.000  0.000  0.000
    3  0.000  0.000  0.000  0.000  0.000  0.000  0.000  0.000  0.000  0.000
    4  0.000  0.000  0.000  0.000  0.000  0.000  0.000  0.000  0.000  0.000
tot    0.000  0.102  0.000  0.893  0.000  0.000  0.000  0.000  0.000  0.995
 
band     2 # energy  -44.23126152 # occ.  1.00000000
 
ion      s     py     pz     px    dxy    dyz    dz2    dxz  x2-y2    tot
    1  0.000  0.893  0.000  0.102  0.000  0.000  0.000  0.000  0.000  0.995
    2  0.000  0.000  0.000  0.000  0.000  0.000  0.000  0.000  0.000  0.000
    3  0.000  0.000  0.000  0.000  0.000  0.000  0.000  0.000  0.000  0.000
    4  0.000  0.000  0.000  0.000  0.000  0.000  0.000  0.000  0.000  0.000
tot    0.000  0.893  0.000  0.102  0.000  0.000  0.000  0.000  0.000  0.995
 
band     3 # energy  -44.22829214 # occ.  1.00000000
 
ion      s     py     pz     px    dxy    dyz    dz2    dxz  x2-y2    tot
    1  0.000  0.000  0.995  0.000  0.000  0.000  0.000  0.000  0.000  0.995
    2  0.000  0.000  0.000  0.000  0.000  0.000  0.000  0.000  0.000  0.000
    3  0.000  0.000  0.000  0.000  0.000  0.000  0.000  0.000  0.000  0.000
    4  0.000  0.000  0.000  0.000  0.000  0.000  0.000  0.000  0.000  0.000
tot    0.000  0.000  0.995  0.000  0.000  0.000  0.000  0.000  0.000  0.995
 
band     4 # energy  -39.85061860 # occ.  1.00000000
 
ion      s     py     pz     px    dxy    dyz    dz2    dxz  x2-y2    tot
    1  0.000  0.000  0.000  0.000  0.000  0.000  0.000  0.000  0.000  0.000
    2  0.000  0.000  0.995  0.000  0.000  0.000  0.000  0.000  0.000  0.995
    3  0.000  0.000  0.000  0.000  0.000  0.000  0.000  0.000  0.000  0.000
    4  0.000  0.000  0.000  0.000  0.000  0.000  0.000  0.000  0.000  0.000
tot    0.000  0.000  0.995  0.000  0.000  0.000  0.000  0.000  0.000  0.995
 
band     5 # energy  -39.84363235 # occ.  1.00000000
 
ion      s     py     pz     px    dxy    dyz    dz2    dxz  x2-y2    tot
    1  0.000  0.000  0.000  0.000  0.000  0.000  0.000  0.000  0.000  0.000
    2  0.000  0.114  0.000  0.882  0.000  0.000  0.000  0.000  0.000  0.996
    3  0.000  0.000  0.000  0.000  0.000  0.000  0.000  0.000  0.000  0.000
    4  0.000  0.000  0.000  0.000  0.000  0.000  0.000  0.000  0.000  0.000
tot    0.000  0.114  0.000  0.882  0.000  0.000  0.000  0.000  0.000  0.996
 
band     6 # energy  -39.84361721 # occ.  1.00000000
 
ion      s     py     pz     px    dxy    dyz    dz2    dxz  x2-y2    tot
    1  0.000  0.000  0.000  0.000  0.000  0.000  0.000  0.000  0.000  0.000
    2  0.000  0.882  0.000  0.114  0.000  0.000  0.000  0.000  0.000  0.996
    3  0.000  0.000  0.000  0.000  0.000  0.000  0.000  0.000  0.000  0.000
    4  0.000  0.000  0.000  0.000  0.000  0.000  0.000  0.000  0.000  0.000
tot    0.000  0.882  0.000  0.114  0.000  0.000  0.000  0.000  0.000  0.996
 
band     7 # energy   -5.47429874 # occ.  1.00000000
 
ion      s     py     pz     px    dxy    dyz    dz2    dxz  x2-y2    tot
    1  0.030  0.000  0.000  0.000  0.000  0.000  0.000  0.000  0.000  0.030
    2  0.000  0.000  0.005  0.000  0.000  0.000  0.000  0.000  0.000  0.005
    3  0.289  0.000  0.001  0.000  0.000  0.000  0.000  0.000  0.000  0.290
    4  0.289  0.000  0.001  0.000  0.000  0.000  0.000  0.000  0.000  0.290
tot    0.608  0.000  0.007  0.000  0.000  0.000  0.000  0.000  0.000  0.615
 
band     8 # energy   -5.42941057 # occ.  1.00000000
 
ion      s     py     pz     px    dxy    dyz    dz2    dxz  x2-y2    tot
    1  0.000  0.000  0.006  0.000  0.000  0.000  0.000  0.000  0.000  0.006
    2  0.023  0.000  0.000  0.000  0.000  0.000  0.000  0.000  0.000  0.023
    3  0.293  0.000  0.001  0.000  0.000  0.000  0.000  0.000  0.000  0.294
    4  0.293  0.000  0.001  0.000  0.000  0.000  0.000  0.000  0.000  0.294
tot    0.610  0.000  0.008  0.000  0.000  0.000  0.000  0.000  0.000  0.618
 
band     9 # energy    2.15984891 # occ.  1.00000000
 
ion      s     py     pz     px    dxy    dyz    dz2    dxz  x2-y2    tot
    1  0.052  0.000  0.000  0.000  0.000  0.000  0.284  0.000  0.000  0.336
    2  0.000  0.000  0.008  0.000  0.001  0.000  0.000  0.001  0.000  0.010
    3  0.019  0.000  0.095  0.000  0.000  0.000  0.001  0.000  0.000  0.115
    4  0.019  0.000  0.095  0.000  0.000  0.000  0.001  0.000  0.000  0.115
tot    0.090  0.000  0.197  0.001  0.001  0.000  0.286  0.001  0.000  0.576
 
band    10 # energy    2.52587532 # occ.  1.00000000
 
ion      s     py     pz     px    dxy    dyz    dz2    dxz  x2-y2    tot
    1  0.000  0.000  0.003  0.000  0.199  0.036  0.000  0.108  0.066  0.412
    2  0.029  0.000  0.000  0.000  0.000  0.000  0.010  0.000  0.000  0.039
    3  0.011  0.008  0.061  0.023  0.000  0.000  0.000  0.000  0.000  0.104
    4  0.011  0.008  0.061  0.023  0.000  0.000  0.000  0.000  0.000  0.104
tot    0.051  0.016  0.125  0.047  0.199  0.036  0.010  0.109  0.066  0.660
 
band    11 # energy    2.71723494 # occ.  1.00000000
 
ion      s     py     pz     px    dxy    dyz    dz2    dxz  x2-y2    tot
    1  0.000  0.000  0.000  0.000  0.116  0.179  0.000  0.060  0.349  0.704
    2  0.000  0.001  0.000  0.000  0.000  0.000  0.000  0.000  0.000  0.001
    3  0.000  0.037  0.000  0.012  0.000  0.001  0.000  0.000  0.000  0.051
    4  0.000  0.037  0.000  0.012  0.000  0.001  0.000  0.000  0.000  0.051
tot    0.000  0.075  0.000  0.025  0.116  0.181  0.000  0.060  0.349  0.808
 
band    12 # energy    2.97140241 # occ.  1.00000000
 
ion      s     py     pz     px    dxy    dyz    dz2    dxz  x2-y2    tot
    1  0.000  0.000  0.010  0.000  0.168  0.016  0.000  0.049  0.056  0.299
    2  0.033  0.000  0.000  0.001  0.000  0.000  0.026  0.000  0.000  0.061
    3  0.013  0.005  0.089  0.014  0.000  0.000  0.001  0.001  0.000  0.123
    4  0.013  0.005  0.089  0.014  0.000  0.000  0.001  0.001  0.000  0.123
tot    0.060  0.010  0.187  0.030  0.168  0.017  0.028  0.050  0.056  0.606
 
band    13 # energy    3.29150190 # occ.  1.00000000
 
ion      s     py     pz     px    dxy    dyz    dz2    dxz  x2-y2    tot
    1  0.000  0.000  0.000  0.000  0.205  0.151  0.003  0.452  0.068  0.879
    2  0.000  0.000  0.000  0.000  0.001  0.000  0.000  0.000  0.000  0.002
    3  0.000  0.001  0.001  0.002  0.001  0.000  0.000  0.000  0.000  0.005
    4  0.000  0.001  0.001  0.002  0.001  0.000  0.000  0.000  0.000  0.005
tot    0.001  0.002  0.001  0.005  0.208  0.151  0.003  0.452  0.069  0.892
 
band    14 # energy    3.29640452 # occ.  1.00000000
 
ion      s     py     pz     px    dxy    dyz    dz2    dxz  x2-y2    tot
    1  0.000  0.000  0.000  0.000  0.077  0.435  0.000  0.145  0.231  0.888
    2  0.000  0.000  0.000  0.000  0.000  0.000  0.000  0.000  0.000  0.001
    3  0.000  0.002  0.000  0.001  0.000  0.000  0.000  0.000  0.001  0.004
    4  0.000  0.002  0.000  0.001  0.000  0.000  0.000  0.000  0.001  0.004
tot    0.000  0.004  0.000  0.001  0.078  0.436  0.000  0.145  0.233  0.896
 
band    15 # energy    3.69519565 # occ.  1.00000000
 
ion      s     py     pz     px    dxy    dyz    dz2    dxz  x2-y2    tot
    1  0.050  0.000  0.000  0.000  0.002  0.002  0.525  0.005  0.001  0.584
    2  0.000  0.000  0.000  0.000  0.011  0.003  0.000  0.008  0.004  0.024
    3  0.019  0.005  0.039  0.015  0.000  0.000  0.000  0.000  0.000  0.079
    4  0.019  0.005  0.039  0.015  0.000  0.000  0.000  0.000  0.000  0.079
tot    0.088  0.010  0.078  0.030  0.013  0.004  0.526  0.012  0.004  0.766
 
band    16 # energy    4.51107962 # occ.  1.00000000
 
ion      s     py     pz     px    dxy    dyz    dz2    dxz  x2-y2    tot
    1  0.000  0.008  0.000  0.003  0.001  0.004  0.000  0.001  0.003  0.019
    2  0.000  0.000  0.000  0.000  0.035  0.072  0.000  0.024  0.105  0.236
    3  0.000  0.132  0.000  0.044  0.000  0.001  0.000  0.000  0.000  0.178
    4  0.000  0.132  0.000  0.044  0.000  0.001  0.000  0.000  0.000  0.178
tot    0.000  0.273  0.000  0.091  0.036  0.078  0.000  0.026  0.109  0.612
 
band    17 # energy    4.57778012 # occ.  1.00000000
 
ion      s     py     pz     px    dxy    dyz    dz2    dxz  x2-y2    tot
    1  0.004  0.003  0.000  0.008  0.002  0.001  0.066  0.003  0.001  0.088
    2  0.000  0.000  0.002  0.000  0.090  0.019  0.000  0.057  0.030  0.198
    3  0.001  0.039  0.013  0.116  0.000  0.000  0.000  0.001  0.000  0.170
    4  0.001  0.039  0.013  0.116  0.000  0.000  0.000  0.001  0.000  0.170
tot    0.006  0.080  0.028  0.241  0.093  0.021  0.066  0.062  0.031  0.628
 
band    18 # energy    6.09695354 # occ.  1.00000000
 
ion      s     py     pz     px    dxy    dyz    dz2    dxz  x2-y2    tot
    1  0.000  0.000  0.006  0.001  0.096  0.020  0.000  0.061  0.032  0.216
    2  0.010  0.003  0.000  0.009  0.009  0.004  0.045  0.013  0.003  0.096
    3  0.008  0.042  0.000  0.126  0.000  0.000  0.001  0.001  0.000  0.178
    4  0.008  0.042  0.000  0.126  0.000  0.000  0.001  0.001  0.000  0.178
tot    0.025  0.087  0.006  0.261  0.106  0.025  0.047  0.075  0.035  0.668
 
band    19 # energy    6.30087733 # occ.  0.99999922
 
ion      s     py     pz     px    dxy    dyz    dz2    dxz  x2-y2    tot
    1  0.000  0.001  0.000  0.000  0.032  0.062  0.000  0.021  0.095  0.212
    2  0.000  0.011  0.000  0.004  0.006  0.025  0.000  0.008  0.017  0.069
    3  0.000  0.148  0.000  0.049  0.000  0.001  0.000  0.000  0.001  0.198
    4  0.000  0.148  0.000  0.049  0.000  0.001  0.000  0.000  0.001  0.198
tot    0.000  0.307  0.000  0.102  0.038  0.088  0.000  0.029  0.113  0.678
 
band    20 # energy    6.97146461 # occ.  0.00000000
 
ion      s     py     pz     px    dxy    dyz    dz2    dxz  x2-y2    tot
    1  0.000  0.001  0.005  0.002  0.000  0.000  0.000  0.000  0.000  0.007
    2  0.012  0.000  0.000  0.000  0.131  0.071  0.265  0.214  0.044  0.737
    3  0.007  0.000  0.003  0.001  0.003  0.000  0.002  0.000  0.001  0.018
    4  0.007  0.000  0.003  0.001  0.003  0.000  0.002  0.000  0.001  0.018
tot    0.027  0.001  0.012  0.003  0.136  0.072  0.269  0.215  0.045  0.780
 
band    21 # energy    7.08257492 # occ.  0.00000000
 
ion      s     py     pz     px    dxy    dyz    dz2    dxz  x2-y2    tot
    1  0.000  0.002  0.000  0.001  0.002  0.005  0.000  0.002  0.007  0.018
    2  0.000  0.001  0.000  0.000  0.072  0.343  0.000  0.114  0.215  0.745
    3  0.000  0.015  0.000  0.005  0.001  0.000  0.000  0.000  0.004  0.025
    4  0.000  0.015  0.000  0.005  0.001  0.000  0.000  0.000  0.004  0.025
tot    0.000  0.032  0.000  0.011  0.076  0.348  0.000  0.116  0.229  0.813
 
band    22 # energy    7.14941743 # occ.  0.00000000
 
ion      s     py     pz     px    dxy    dyz    dz2    dxz  x2-y2    tot
    1  0.000  0.000  0.003  0.000  0.011  0.002  0.000  0.006  0.004  0.026
    2  0.010  0.001  0.000  0.002  0.087  0.047  0.342  0.140  0.029  0.657
    3  0.005  0.010  0.006  0.029  0.001  0.000  0.002  0.000  0.000  0.053
    4  0.005  0.010  0.006  0.029  0.001  0.000  0.002  0.000  0.000  0.053
tot    0.020  0.020  0.015  0.060  0.100  0.049  0.347  0.146  0.033  0.790
 
band    23 # energy    8.02738194 # occ.  0.00000000
 
ion      s     py     pz     px    dxy    dyz    dz2    dxz  x2-y2    tot
    1  0.012  0.004  0.000  0.013  0.000  0.000  0.005  0.001  0.000  0.036
    2  0.000  0.000  0.004  0.000  0.262  0.065  0.000  0.196  0.087  0.615
    3  0.007  0.016  0.004  0.049  0.000  0.001  0.000  0.004  0.000  0.082
    4  0.007  0.016  0.004  0.049  0.000  0.001  0.000  0.004  0.000  0.082
tot    0.027  0.037  0.011  0.111  0.262  0.068  0.006  0.205  0.087  0.815
 
band    24 # energy    8.17154440 # occ.  0.00000000
 
ion      s     py     pz     px    dxy    dyz    dz2    dxz  x2-y2    tot
    1  0.000  0.015  0.000  0.005  0.000  0.001  0.000  0.000  0.000  0.021
    2  0.000  0.000  0.000  0.000  0.092  0.199  0.000  0.066  0.275  0.633
    3  0.000  0.063  0.000  0.021  0.000  0.004  0.000  0.001  0.000  0.089
    4  0.000  0.063  0.000  0.021  0.000  0.004  0.000  0.001  0.000  0.089
tot    0.000  0.141  0.000  0.047  0.092  0.208  0.000  0.069  0.276  0.833
 

 k-point    24 :    0.07894737 0.00000000 0.50000000     weight = 0.02500000

band     1 # energy  -44.23129058 # occ.  1.00000000
 
ion      s     py     pz     px    dxy    dyz    dz2    dxz  x2-y2    tot
    1  0.000  0.201  0.000  0.794  0.000  0.000  0.000  0.000  0.000  0.995
    2  0.000  0.000  0.000  0.000  0.000  0.000  0.000  0.000  0.000  0.000
    3  0.000  0.000  0.000  0.000  0.000  0.000  0.000  0.000  0.000  0.000
    4  0.000  0.000  0.000  0.000  0.000  0.000  0.000  0.000  0.000  0.000
tot    0.000  0.201  0.000  0.794  0.000  0.000  0.000  0.000  0.000  0.995
 
band     2 # energy  -44.23126025 # occ.  1.00000000
 
ion      s     py     pz     px    dxy    dyz    dz2    dxz  x2-y2    tot
    1  0.000  0.794  0.000  0.201  0.000  0.000  0.000  0.000  0.000  0.995
    2  0.000  0.000  0.000  0.000  0.000  0.000  0.000  0.000  0.000  0.000
    3  0.000  0.000  0.000  0.000  0.000  0.000  0.000  0.000  0.000  0.000
    4  0.000  0.000  0.000  0.000  0.000  0.000  0.000  0.000  0.000  0.000
tot    0.000  0.794  0.000  0.201  0.000  0.000  0.000  0.000  0.000  0.995
 
band     3 # energy  -44.22828611 # occ.  1.00000000
 
ion      s     py     pz     px    dxy    dyz    dz2    dxz  x2-y2    tot
    1  0.000  0.000  0.995  0.000  0.000  0.000  0.000  0.000  0.000  0.995
    2  0.000  0.000  0.000  0.000  0.000  0.000  0.000  0.000  0.000  0.000
    3  0.000  0.000  0.000  0.000  0.000  0.000  0.000  0.000  0.000  0.000
    4  0.000  0.000  0.000  0.000  0.000  0.000  0.000  0.000  0.000  0.000
tot    0.000  0.000  0.995  0.000  0.000  0.000  0.000  0.000  0.000  0.995
 
band     4 # energy  -39.85060834 # occ.  1.00000000
 
ion      s     py     pz     px    dxy    dyz    dz2    dxz  x2-y2    tot
    1  0.000  0.000  0.000  0.000  0.000  0.000  0.000  0.000  0.000  0.000
    2  0.000  0.000  0.995  0.000  0.000  0.000  0.000  0.000  0.000  0.995
    3  0.000  0.000  0.000  0.000  0.000  0.000  0.000  0.000  0.000  0.000
    4  0.000  0.000  0.000  0.000  0.000  0.000  0.000  0.000  0.000  0.000
tot    0.000  0.000  0.995  0.000  0.000  0.000  0.000  0.000  0.000  0.995
 
band     5 # energy  -39.84366363 # occ.  1.00000000
 
ion      s     py     pz     px    dxy    dyz    dz2    dxz  x2-y2    tot
    1  0.000  0.000  0.000  0.000  0.000  0.000  0.000  0.000  0.000  0.000
    2  0.000  0.203  0.000  0.793  0.000  0.000  0.000  0.000  0.000  0.996
    3  0.000  0.000  0.000  0.000  0.000  0.000  0.000  0.000  0.000  0.000
    4  0.000  0.000  0.000  0.000  0.000  0.000  0.000  0.000  0.000  0.000
tot    0.000  0.203  0.000  0.793  0.000  0.000  0.000  0.000  0.000  0.996
 
band     6 # energy  -39.84361573 # occ.  1.00000000
 
ion      s     py     pz     px    dxy    dyz    dz2    dxz  x2-y2    tot
    1  0.000  0.000  0.000  0.000  0.000  0.000  0.000  0.000  0.000  0.000
    2  0.000  0.793  0.000  0.203  0.000  0.000  0.000  0.000  0.000  0.996
    3  0.000  0.000  0.000  0.000  0.000  0.000  0.000  0.000  0.000  0.000
    4  0.000  0.000  0.000  0.000  0.000  0.000  0.000  0.000  0.000  0.000
tot    0.000  0.793  0.000  0.203  0.000  0.000  0.000  0.000  0.000  0.996
 
band     7 # energy   -5.45213746 # occ.  1.00000000
 
ion      s     py     pz     px    dxy    dyz    dz2    dxz  x2-y2    tot
    1  0.029  0.000  0.000  0.000  0.000  0.000  0.000  0.000  0.000  0.029
    2  0.000  0.000  0.005  0.000  0.000  0.000  0.000  0.000  0.000  0.005
    3  0.290  0.000  0.001  0.000  0.000  0.000  0.000  0.000  0.000  0.291
    4  0.290  0.000  0.001  0.000  0.000  0.000  0.000  0.000  0.000  0.291
tot    0.609  0.000  0.007  0.000  0.000  0.000  0.000  0.000  0.000  0.617
 
band     8 # energy   -5.40844252 # occ.  1.00000000
 
ion      s     py     pz     px    dxy    dyz    dz2    dxz  x2-y2    tot
    1  0.000  0.000  0.006  0.000  0.000  0.000  0.000  0.000  0.000  0.006
    2  0.023  0.000  0.000  0.000  0.000  0.000  0.000  0.000  0.000  0.023
    3  0.294  0.000  0.001  0.000  0.000  0.000  0.000  0.000  0.000  0.295
    4  0.294  0.000  0.001  0.000  0.000  0.000  0.000  0.000  0.000  0.295
tot    0.611  0.000  0.008  0.000  0.000  0.000  0.000  0.000  0.000  0.620
 
band     9 # energy    2.16803872 # occ.  1.00000000
 
ion      s     py     pz     px    dxy    dyz    dz2    dxz  x2-y2    tot
    1  0.053  0.000  0.000  0.000  0.000  0.000  0.273  0.000  0.000  0.327
    2  0.000  0.000  0.007  0.000  0.002  0.001  0.000  0.002  0.001  0.012
    3  0.019  0.000  0.096  0.001  0.000  0.000  0.001  0.000  0.000  0.117
    4  0.019  0.000  0.096  0.001  0.000  0.000  0.001  0.000  0.000  0.117
tot    0.092  0.001  0.198  0.003  0.002  0.001  0.275  0.002  0.001  0.574
 
band    10 # energy    2.42253084 # occ.  1.00000000
 
ion      s     py     pz     px    dxy    dyz    dz2    dxz  x2-y2    tot
    1  0.000  0.000  0.002  0.000  0.190  0.035  0.000  0.106  0.063  0.397
    2  0.031  0.000  0.000  0.000  0.000  0.000  0.008  0.000  0.000  0.040
    3  0.012  0.008  0.062  0.024  0.000  0.000  0.000  0.000  0.000  0.107
    4  0.012  0.008  0.062  0.024  0.000  0.000  0.000  0.000  0.000  0.107
tot    0.054  0.016  0.127  0.049  0.190  0.036  0.009  0.107  0.063  0.651
 
band    11 # energy    2.72078378 # occ.  1.00000000
 
ion      s     py     pz     px    dxy    dyz    dz2    dxz  x2-y2    tot
    1  0.000  0.000  0.000  0.000  0.113  0.189  0.000  0.063  0.338  0.702
    2  0.000  0.001  0.000  0.000  0.000  0.000  0.000  0.000  0.000  0.002
    3  0.000  0.038  0.000  0.013  0.000  0.001  0.000  0.000  0.000  0.052
    4  0.000  0.038  0.000  0.013  0.000  0.001  0.000  0.000  0.000  0.052
tot    0.000  0.076  0.000  0.025  0.113  0.191  0.000  0.064  0.338  0.807
 
band    12 # energy    3.08524520 # occ.  1.00000000
 
ion      s     py     pz     px    dxy    dyz    dz2    dxz  x2-y2    tot
    1  0.000  0.000  0.011  0.000  0.199  0.009  0.000  0.028  0.066  0.313
    2  0.030  0.000  0.000  0.001  0.000  0.000  0.029  0.000  0.000  0.060
    3  0.012  0.005  0.086  0.015  0.000  0.000  0.001  0.001  0.000  0.119
    4  0.012  0.005  0.086  0.015  0.000  0.000  0.001  0.001  0.000  0.119
tot    0.054  0.010  0.183  0.031  0.199  0.010  0.030  0.029  0.066  0.612
 
band    13 # energy    3.26847097 # occ.  1.00000000
 
ion      s     py     pz     px    dxy    dyz    dz2    dxz  x2-y2    tot
    1  0.001  0.000  0.000  0.000  0.167  0.148  0.021  0.443  0.056  0.835
    2  0.000  0.000  0.000  0.001  0.002  0.000  0.001  0.001  0.001  0.006
    3  0.001  0.002  0.002  0.007  0.001  0.000  0.000  0.000  0.000  0.015
    4  0.001  0.002  0.002  0.007  0.001  0.000  0.000  0.000  0.000  0.015
tot    0.004  0.005  0.005  0.015  0.171  0.148  0.022  0.444  0.057  0.871
 
band    14 # energy    3.28646447 # occ.  1.00000000
 
ion      s     py     pz     px    dxy    dyz    dz2    dxz  x2-y2    tot
    1  0.000  0.000  0.000  0.000  0.080  0.418  0.000  0.139  0.240  0.878
    2  0.000  0.000  0.000  0.000  0.000  0.001  0.000  0.000  0.001  0.002
    3  0.000  0.003  0.000  0.001  0.000  0.000  0.000  0.000  0.001  0.006
    4  0.000  0.003  0.000  0.001  0.000  0.000  0.000  0.000  0.001  0.006
tot    0.000  0.007  0.000  0.002  0.081  0.419  0.000  0.140  0.243  0.891
 
band    15 # energy    3.59754754 # occ.  1.00000000
 
ion      s     py     pz     px    dxy    dyz    dz2    dxz  x2-y2    tot
    1  0.044  0.000  0.000  0.001  0.010  0.010  0.474  0.029  0.003  0.571
    2  0.000  0.000  0.000  0.000  0.015  0.004  0.000  0.011  0.005  0.035
    3  0.017  0.007  0.030  0.022  0.000  0.000  0.001  0.000  0.000  0.078
    4  0.017  0.007  0.030  0.022  0.000  0.000  0.001  0.000  0.000  0.078
tot    0.079  0.015  0.060  0.045  0.026  0.013  0.476  0.040  0.009  0.761
 
band    16 # energy    4.50993798 # occ.  1.00000000
 
ion      s     py     pz     px    dxy    dyz    dz2    dxz  x2-y2    tot
    1  0.000  0.008  0.000  0.003  0.002  0.008  0.000  0.003  0.006  0.030
    2  0.000  0.000  0.000  0.000  0.033  0.073  0.000  0.024  0.100  0.232
    3  0.000  0.131  0.000  0.044  0.000  0.001  0.000  0.000  0.000  0.176
    4  0.000  0.131  0.000  0.044  0.000  0.001  0.000  0.000  0.000  0.176
tot    0.000  0.271  0.000  0.090  0.036  0.083  0.000  0.028  0.107  0.615
 
band    17 # energy    4.63689592 # occ.  1.00000000
 
ion      s     py     pz     px    dxy    dyz    dz2    dxz  x2-y2    tot
    1  0.006  0.003  0.000  0.008  0.005  0.002  0.113  0.005  0.002  0.144
    2  0.000  0.000  0.004  0.000  0.074  0.015  0.000  0.046  0.025  0.164
    3  0.002  0.035  0.023  0.105  0.000  0.000  0.000  0.001  0.000  0.165
    4  0.002  0.035  0.023  0.105  0.000  0.000  0.000  0.001  0.000  0.165
tot    0.009  0.073  0.050  0.218  0.079  0.018  0.113  0.053  0.026  0.639
 
band    18 # energy    5.84348563 # occ.  1.00000000
 
ion      s     py     pz     px    dxy    dyz    dz2    dxz  x2-y2    tot
    1  0.000  0.000  0.008  0.001  0.100  0.022  0.000  0.065  0.033  0.230
    2  0.014  0.003  0.000  0.008  0.011  0.005  0.045  0.014  0.004  0.104
    3  0.011  0.037  0.000  0.112  0.000  0.000  0.001  0.001  0.000  0.163
    4  0.011  0.037  0.000  0.112  0.000  0.000  0.001  0.001  0.000  0.163
tot    0.036  0.078  0.009  0.233  0.112  0.027  0.048  0.081  0.037  0.660
 
band    19 # energy    6.20505213 # occ.  1.00000000
 
ion      s     py     pz     px    dxy    dyz    dz2    dxz  x2-y2    tot
    1  0.000  0.002  0.000  0.001  0.030  0.063  0.000  0.021  0.090  0.206
    2  0.000  0.010  0.000  0.003  0.009  0.036  0.000  0.012  0.026  0.096
    3  0.000  0.138  0.000  0.046  0.000  0.001  0.000  0.000  0.001  0.186
    4  0.000  0.138  0.000  0.046  0.000  0.001  0.000  0.000  0.001  0.186
tot    0.000  0.288  0.000  0.096  0.039  0.100  0.000  0.033  0.117  0.674
 
band    20 # energy    6.96003681 # occ.  0.00000000
 
ion      s     py     pz     px    dxy    dyz    dz2    dxz  x2-y2    tot
    1  0.001  0.001  0.004  0.002  0.000  0.000  0.000  0.000  0.000  0.008
    2  0.011  0.000  0.000  0.000  0.146  0.077  0.225  0.231  0.049  0.739
    3  0.006  0.000  0.003  0.000  0.003  0.000  0.002  0.000  0.001  0.016
    4  0.006  0.000  0.003  0.000  0.003  0.000  0.002  0.000  0.001  0.016
tot    0.024  0.001  0.010  0.003  0.152  0.077  0.229  0.232  0.051  0.780
 
band    21 # energy    7.15397091 # occ.  0.00000000
 
ion      s     py     pz     px    dxy    dyz    dz2    dxz  x2-y2    tot
    1  0.000  0.001  0.000  0.000  0.004  0.007  0.000  0.002  0.011  0.025
    2  0.000  0.002  0.000  0.001  0.072  0.326  0.000  0.109  0.216  0.725
    3  0.000  0.022  0.000  0.007  0.001  0.000  0.000  0.000  0.003  0.034
    4  0.000  0.022  0.000  0.007  0.001  0.000  0.000  0.000  0.003  0.034
tot    0.000  0.047  0.000  0.016  0.078  0.334  0.000  0.111  0.233  0.818
 
band    22 # energy    7.26734114 # occ.  0.00000000
 
ion      s     py     pz     px    dxy    dyz    dz2    dxz  x2-y2    tot
    1  0.000  0.000  0.001  0.000  0.011  0.002  0.000  0.006  0.004  0.024
    2  0.008  0.001  0.000  0.003  0.076  0.037  0.400  0.111  0.025  0.660
    3  0.003  0.011  0.008  0.033  0.001  0.000  0.002  0.000  0.000  0.059
    4  0.003  0.011  0.008  0.033  0.001  0.000  0.002  0.000  0.000  0.059
tot    0.015  0.023  0.018  0.070  0.088  0.039  0.404  0.117  0.029  0.803
 
band    23 # energy    7.86973022 # occ.  0.00000000
 
ion      s     py     pz     px    dxy    dyz    dz2    dxz  x2-y2    tot
    1  0.021  0.004  0.000  0.012  0.001  0.000  0.007  0.001  0.000  0.046
    2  0.000  0.000  0.005  0.000  0.250  0.070  0.000  0.209  0.083  0.616
    3  0.012  0.012  0.006  0.037  0.000  0.001  0.001  0.004  0.000  0.072
    4  0.012  0.012  0.006  0.037  0.000  0.001  0.001  0.004  0.000  0.072
tot    0.045  0.028  0.016  0.085  0.251  0.073  0.008  0.218  0.084  0.807
 
band    24 # energy    8.13921729 # occ.  0.00000000
 
ion      s     py     pz     px    dxy    dyz    dz2    dxz  x2-y2    tot
    1  0.000  0.015  0.000  0.005  0.000  0.002  0.000  0.001  0.001  0.023
    2  0.000  0.001  0.000  0.000  0.090  0.206  0.000  0.069  0.271  0.637
    3  0.000  0.060  0.000  0.020  0.000  0.004  0.000  0.001  0.000  0.086
    4  0.000  0.060  0.000  0.020  0.000  0.004  0.000  0.001  0.000  0.086
tot    0.000  0.136  0.000  0.045  0.091  0.215  0.000  0.072  0.272  0.831
 

 k-point    25 :    0.10526316 0.00000000 0.50000000     weight = 0.02500000

band     1 # energy  -44.23133711 # occ.  1.00000000
 
ion      s     py     pz     px    dxy    dyz    dz2    dxz  x2-y2    tot
    1  0.000  0.228  0.000  0.767  0.000  0.000  0.000  0.000  0.000  0.995
    2  0.000  0.000  0.000  0.000  0.000  0.000  0.000  0.000  0.000  0.000
    3  0.000  0.000  0.000  0.000  0.000  0.000  0.000  0.000  0.000  0.000
    4  0.000  0.000  0.000  0.000  0.000  0.000  0.000  0.000  0.000  0.000
tot    0.000  0.228  0.000  0.767  0.000  0.000  0.000  0.000  0.000  0.995
 
band     2 # energy  -44.23126563 # occ.  1.00000000
 
ion      s     py     pz     px    dxy    dyz    dz2    dxz  x2-y2    tot
    1  0.000  0.767  0.000  0.228  0.000  0.000  0.000  0.000  0.000  0.995
    2  0.000  0.000  0.000  0.000  0.000  0.000  0.000  0.000  0.000  0.000
    3  0.000  0.000  0.000  0.000  0.000  0.000  0.000  0.000  0.000  0.000
    4  0.000  0.000  0.000  0.000  0.000  0.000  0.000  0.000  0.000  0.000
tot    0.000  0.767  0.000  0.228  0.000  0.000  0.000  0.000  0.000  0.995
 
band     3 # energy  -44.22827843 # occ.  1.00000000
 
ion      s     py     pz     px    dxy    dyz    dz2    dxz  x2-y2    tot
    1  0.000  0.000  0.995  0.000  0.000  0.000  0.000  0.000  0.000  0.995
    2  0.000  0.000  0.000  0.000  0.000  0.000  0.000  0.000  0.000  0.000
    3  0.000  0.000  0.000  0.000  0.000  0.000  0.000  0.000  0.000  0.000
    4  0.000  0.000  0.000  0.000  0.000  0.000  0.000  0.000  0.000  0.000
tot    0.000  0.000  0.995  0.000  0.000  0.000  0.000  0.000  0.000  0.995
 
band     4 # energy  -39.85059620 # occ.  1.00000000
 
ion      s     py     pz     px    dxy    dyz    dz2    dxz  x2-y2    tot
    1  0.000  0.000  0.000  0.000  0.000  0.000  0.000  0.000  0.000  0.000
    2  0.000  0.000  0.995  0.000  0.000  0.000  0.000  0.000  0.000  0.995
    3  0.000  0.000  0.000  0.000  0.000  0.000  0.000  0.000  0.000  0.000
    4  0.000  0.000  0.000  0.000  0.000  0.000  0.000  0.000  0.000  0.000
tot    0.000  0.000  0.995  0.000  0.000  0.000  0.000  0.000  0.000  0.995
 
band     5 # energy  -39.84373171 # occ.  1.00000000
 
ion      s     py     pz     px    dxy    dyz    dz2    dxz  x2-y2    tot
    1  0.000  0.000  0.000  0.000  0.000  0.000  0.000  0.000  0.000  0.000
    2  0.000  0.228  0.000  0.768  0.000  0.000  0.000  0.000  0.000  0.996
    3  0.000  0.000  0.000  0.000  0.000  0.000  0.000  0.000  0.000  0.000
    4  0.000  0.000  0.000  0.000  0.000  0.000  0.000  0.000  0.000  0.000
tot    0.000  0.228  0.000  0.768  0.000  0.000  0.000  0.000  0.000  0.996
 
band     6 # energy  -39.84362520 # occ.  1.00000000
 
ion      s     py     pz     px    dxy    dyz    dz2    dxz  x2-y2    tot
    1  0.000  0.000  0.000  0.000  0.000  0.000  0.000  0.000  0.000  0.000
    2  0.000  0.768  0.000  0.228  0.000  0.000  0.000  0.000  0.000  0.996
    3  0.000  0.000  0.000  0.000  0.000  0.000  0.000  0.000  0.000  0.000
    4  0.000  0.000  0.000  0.000  0.000  0.000  0.000  0.000  0.000  0.000
tot    0.000  0.768  0.000  0.228  0.000  0.000  0.000  0.000  0.000  0.996
 
band     7 # energy   -5.42157285 # occ.  1.00000000
 
ion      s     py     pz     px    dxy    dyz    dz2    dxz  x2-y2    tot
    1  0.028  0.000  0.000  0.000  0.000  0.000  0.000  0.000  0.000  0.029
    2  0.000  0.000  0.004  0.000  0.000  0.000  0.000  0.000  0.000  0.005
    3  0.291  0.000  0.001  0.000  0.000  0.000  0.000  0.000  0.000  0.292
    4  0.291  0.000  0.001  0.000  0.000  0.000  0.000  0.000  0.000  0.292
tot    0.610  0.000  0.007  0.001  0.000  0.000  0.000  0.000  0.000  0.619
 
band     8 # energy   -5.37954285 # occ.  1.00000000
 
ion      s     py     pz     px    dxy    dyz    dz2    dxz  x2-y2    tot
    1  0.000  0.000  0.006  0.000  0.000  0.000  0.000  0.001  0.000  0.006
    2  0.022  0.000  0.000  0.000  0.000  0.000  0.000  0.000  0.000  0.023
    3  0.295  0.000  0.001  0.000  0.000  0.000  0.000  0.000  0.000  0.296
    4  0.295  0.000  0.001  0.000  0.000  0.000  0.000  0.000  0.000  0.296
tot    0.612  0.000  0.008  0.001  0.000  0.000  0.000  0.001  0.000  0.622
 
band     9 # energy    2.17665522 # occ.  1.00000000
 
ion      s     py     pz     px    dxy    dyz    dz2    dxz  x2-y2    tot
    1  0.055  0.000  0.000  0.000  0.000  0.000  0.256  0.001  0.000  0.313
    2  0.000  0.000  0.006  0.000  0.004  0.001  0.000  0.003  0.001  0.015
    3  0.020  0.001  0.096  0.003  0.000  0.000  0.001  0.000  0.000  0.121
    4  0.020  0.001  0.096  0.003  0.000  0.000  0.001  0.000  0.000  0.121
tot    0.096  0.002  0.199  0.005  0.004  0.001  0.257  0.004  0.001  0.569
 
band    10 # energy    2.32117623 # occ.  1.00000000
 
ion      s     py     pz     px    dxy    dyz    dz2    dxz  x2-y2    tot
    1  0.000  0.000  0.001  0.000  0.184  0.035  0.000  0.104  0.061  0.385
    2  0.033  0.000  0.000  0.000  0.000  0.000  0.007  0.000  0.000  0.040
    3  0.012  0.009  0.062  0.026  0.000  0.000  0.000  0.000  0.000  0.109
    4  0.012  0.009  0.062  0.026  0.000  0.000  0.000  0.000  0.000  0.109
tot    0.057  0.017  0.125  0.052  0.184  0.035  0.007  0.104  0.061  0.643
 
band    11 # energy    2.72510944 # occ.  1.00000000
 
ion      s     py     pz     px    dxy    dyz    dz2    dxz  x2-y2    tot
    1  0.000  0.000  0.000  0.000  0.107  0.203  0.000  0.068  0.322  0.700
    2  0.000  0.001  0.000  0.000  0.000  0.000  0.000  0.000  0.000  0.002
    3  0.000  0.038  0.000  0.013  0.000  0.001  0.000  0.000  0.000  0.053
    4  0.000  0.038  0.000  0.013  0.000  0.001  0.000  0.000  0.000  0.053
tot    0.000  0.078  0.000  0.026  0.108  0.205  0.000  0.068  0.323  0.807
 
band    12 # energy    3.18801799 # occ.  1.00000000
 
ion      s     py     pz     px    dxy    dyz    dz2    dxz  x2-y2    tot
    1  0.001  0.000  0.008  0.000  0.332  0.011  0.012  0.032  0.111  0.506
    2  0.019  0.000  0.000  0.001  0.001  0.000  0.019  0.001  0.000  0.042
    3  0.007  0.004  0.054  0.011  0.000  0.000  0.001  0.001  0.000  0.078
    4  0.007  0.004  0.054  0.011  0.000  0.000  0.001  0.001  0.000  0.078
tot    0.033  0.008  0.116  0.023  0.333  0.011  0.033  0.034  0.111  0.703
 
band    13 # energy    3.22814745 # occ.  1.00000000
 
ion      s     py     pz     px    dxy    dyz    dz2    dxz  x2-y2    tot
    1  0.005  0.000  0.005  0.000  0.009  0.116  0.076  0.348  0.003  0.564
    2  0.008  0.001  0.001  0.002  0.005  0.001  0.012  0.002  0.002  0.034
    3  0.007  0.007  0.034  0.022  0.001  0.000  0.000  0.000  0.000  0.072
    4  0.007  0.007  0.034  0.022  0.001  0.000  0.000  0.000  0.000  0.072
tot    0.028  0.015  0.073  0.046  0.016  0.117  0.089  0.351  0.005  0.741
 
band    14 # energy    3.27409732 # occ.  1.00000000
 
ion      s     py     pz     px    dxy    dyz    dz2    dxz  x2-y2    tot
    1  0.000  0.000  0.000  0.000  0.085  0.395  0.000  0.132  0.254  0.865
    2  0.000  0.000  0.000  0.000  0.000  0.001  0.000  0.000  0.001  0.003
    3  0.000  0.005  0.000  0.002  0.000  0.000  0.000  0.000  0.001  0.008
    4  0.000  0.005  0.000  0.002  0.000  0.000  0.000  0.000  0.001  0.008
tot    0.000  0.011  0.000  0.004  0.086  0.396  0.000  0.132  0.257  0.885
 
band    15 # energy    3.50861502 # occ.  1.00000000
 
ion      s     py     pz     px    dxy    dyz    dz2    dxz  x2-y2    tot
    1  0.035  0.000  0.000  0.001  0.028  0.037  0.389  0.111  0.009  0.611
    2  0.000  0.000  0.001  0.000  0.014  0.004  0.001  0.011  0.005  0.035
    3  0.014  0.007  0.023  0.021  0.000  0.000  0.001  0.000  0.000  0.066
    4  0.014  0.007  0.023  0.021  0.000  0.000  0.001  0.000  0.000  0.066
tot    0.064  0.014  0.046  0.043  0.043  0.041  0.391  0.122  0.014  0.778
 
band    16 # energy    4.50676358 # occ.  1.00000000
 
ion      s     py     pz     px    dxy    dyz    dz2    dxz  x2-y2    tot
    1  0.000  0.009  0.000  0.003  0.004  0.014  0.000  0.005  0.011  0.044
    2  0.000  0.000  0.000  0.000  0.031  0.075  0.000  0.025  0.093  0.225
    3  0.000  0.130  0.000  0.043  0.000  0.001  0.000  0.000  0.000  0.175
    4  0.000  0.130  0.000  0.043  0.000  0.001  0.000  0.000  0.000  0.175
tot    0.000  0.269  0.000  0.090  0.035  0.090  0.000  0.030  0.105  0.618
 
band    17 # energy    4.69299082 # occ.  1.00000000
 
ion      s     py     pz     px    dxy    dyz    dz2    dxz  x2-y2    tot
    1  0.007  0.003  0.000  0.009  0.009  0.002  0.151  0.007  0.003  0.192
    2  0.000  0.000  0.006  0.000  0.057  0.012  0.000  0.036  0.019  0.130
    3  0.002  0.032  0.033  0.095  0.000  0.000  0.000  0.001  0.000  0.162
    4  0.002  0.032  0.033  0.095  0.000  0.000  0.000  0.001  0.000  0.162
tot    0.010  0.066  0.071  0.199  0.066  0.015  0.152  0.044  0.022  0.646
 
band    18 # energy    5.57431054 # occ.  1.00000000
 
ion      s     py     pz     px    dxy    dyz    dz2    dxz  x2-y2    tot
    1  0.001  0.000  0.010  0.001  0.106  0.025  0.000  0.074  0.035  0.253
    2  0.017  0.003  0.000  0.008  0.013  0.004  0.039  0.013  0.004  0.101
    3  0.014  0.033  0.001  0.100  0.001  0.000  0.001  0.001  0.000  0.151
    4  0.014  0.033  0.001  0.100  0.001  0.000  0.001  0.001  0.000  0.151
tot    0.045  0.070  0.011  0.210  0.120  0.030  0.042  0.089  0.040  0.656
 
band    19 # energy    6.09874097 # occ.  1.00000000
 
ion      s     py     pz     px    dxy    dyz    dz2    dxz  x2-y2    tot
    1  0.000  0.003  0.000  0.001  0.028  0.066  0.000  0.022  0.085  0.205
    2  0.000  0.010  0.000  0.003  0.011  0.040  0.000  0.013  0.033  0.110
    3  0.000  0.130  0.000  0.043  0.000  0.001  0.000  0.000  0.001  0.177
    4  0.000  0.130  0.000  0.043  0.000  0.001  0.000  0.000  0.001  0.177
tot    0.000  0.274  0.000  0.091  0.040  0.108  0.000  0.036  0.120  0.669
 
band    20 # energy    6.94219939 # occ.  0.00000000
 
ion      s     py     pz     px    dxy    dyz    dz2    dxz  x2-y2    tot
    1  0.001  0.001  0.004  0.002  0.000  0.000  0.000  0.001  0.000  0.010
    2  0.011  0.000  0.000  0.000  0.157  0.076  0.209  0.228  0.052  0.733
    3  0.006  0.000  0.003  0.000  0.003  0.000  0.002  0.000  0.001  0.016
    4  0.006  0.000  0.003  0.000  0.003  0.000  0.002  0.000  0.001  0.016
tot    0.025  0.001  0.010  0.003  0.163  0.076  0.213  0.229  0.054  0.775
 
band    21 # energy    7.22781402 # occ.  0.00000000
 
ion      s     py     pz     px    dxy    dyz    dz2    dxz  x2-y2    tot
    1  0.000  0.000  0.000  0.000  0.004  0.009  0.000  0.003  0.012  0.029
    2  0.000  0.002  0.000  0.001  0.075  0.311  0.000  0.104  0.225  0.718
    3  0.000  0.027  0.000  0.009  0.001  0.000  0.000  0.000  0.002  0.039
    4  0.000  0.027  0.000  0.009  0.001  0.000  0.000  0.000  0.002  0.039
tot    0.000  0.056  0.000  0.019  0.081  0.321  0.000  0.107  0.242  0.825
 
band    22 # energy    7.36683896 # occ.  0.00000000
 
ion      s     py     pz     px    dxy    dyz    dz2    dxz  x2-y2    tot
    1  0.000  0.000  0.001  0.000  0.008  0.002  0.000  0.005  0.003  0.019
    2  0.005  0.001  0.000  0.003  0.084  0.030  0.441  0.089  0.028  0.681
    3  0.002  0.011  0.010  0.033  0.001  0.000  0.002  0.000  0.000  0.059
    4  0.002  0.011  0.010  0.033  0.001  0.000  0.002  0.000  0.000  0.059
tot    0.010  0.023  0.021  0.069  0.093  0.031  0.445  0.094  0.031  0.817
 
band    23 # energy    7.70827892 # occ.  0.00000000
 
ion      s     py     pz     px    dxy    dyz    dz2    dxz  x2-y2    tot
    1  0.029  0.003  0.000  0.010  0.001  0.000  0.008  0.001  0.000  0.053
    2  0.000  0.000  0.005  0.000  0.229  0.080  0.000  0.239  0.076  0.630
    3  0.015  0.009  0.006  0.026  0.000  0.001  0.001  0.004  0.000  0.062
    4  0.015  0.009  0.006  0.026  0.000  0.001  0.001  0.004  0.000  0.062
tot    0.059  0.021  0.017  0.062  0.231  0.083  0.009  0.249  0.077  0.807
 
band    24 # energy    8.09756704 # occ.  0.00000000
 
ion      s     py     pz     px    dxy    dyz    dz2    dxz  x2-y2    tot
    1  0.000  0.015  0.000  0.005  0.000  0.002  0.000  0.001  0.001  0.025
    2  0.000  0.001  0.000  0.000  0.088  0.216  0.000  0.072  0.264  0.642
    3  0.000  0.057  0.000  0.019  0.000  0.004  0.000  0.001  0.000  0.081
    4  0.000  0.057  0.000  0.019  0.000  0.004  0.000  0.001  0.000  0.081
tot    0.000  0.129  0.000  0.043  0.089  0.226  0.000  0.075  0.267  0.829
 

 k-point    26 :    0.13157895 0.00000000 0.50000000     weight = 0.02500000

band     1 # energy  -44.23140927 # occ.  1.00000000
 
ion      s     py     pz     px    dxy    dyz    dz2    dxz  x2-y2    tot
    1  0.000  0.237  0.000  0.758  0.000  0.000  0.000  0.000  0.000  0.995
    2  0.000  0.000  0.000  0.000  0.000  0.000  0.000  0.000  0.000  0.000
    3  0.000  0.000  0.000  0.000  0.000  0.000  0.000  0.000  0.000  0.000
    4  0.000  0.000  0.000  0.000  0.000  0.000  0.000  0.000  0.000  0.000
tot    0.000  0.237  0.000  0.758  0.000  0.000  0.000  0.000  0.000  0.995
 
band     2 # energy  -44.23128182 # occ.  1.00000000
 
ion      s     py     pz     px    dxy    dyz    dz2    dxz  x2-y2    tot
    1  0.000  0.758  0.000  0.237  0.000  0.000  0.000  0.000  0.000  0.995
    2  0.000  0.000  0.000  0.000  0.000  0.000  0.000  0.000  0.000  0.000
    3  0.000  0.000  0.000  0.000  0.000  0.000  0.000  0.000  0.000  0.000
    4  0.000  0.000  0.000  0.000  0.000  0.000  0.000  0.000  0.000  0.000
tot    0.000  0.758  0.000  0.237  0.000  0.000  0.000  0.000  0.000  0.995
 
band     3 # energy  -44.22826997 # occ.  1.00000000
 
ion      s     py     pz     px    dxy    dyz    dz2    dxz  x2-y2    tot
    1  0.000  0.000  0.995  0.000  0.000  0.000  0.000  0.000  0.000  0.995
    2  0.000  0.000  0.000  0.000  0.000  0.000  0.000  0.000  0.000  0.000
    3  0.000  0.000  0.000  0.000  0.000  0.000  0.000  0.000  0.000  0.000
    4  0.000  0.000  0.000  0.000  0.000  0.000  0.000  0.000  0.000  0.000
tot    0.000  0.000  0.995  0.000  0.000  0.000  0.000  0.000  0.000  0.995
 
band     4 # energy  -39.85058335 # occ.  1.00000000
 
ion      s     py     pz     px    dxy    dyz    dz2    dxz  x2-y2    tot
    1  0.000  0.000  0.000  0.000  0.000  0.000  0.000  0.000  0.000  0.000
    2  0.000  0.000  0.995  0.000  0.000  0.000  0.000  0.000  0.000  0.995
    3  0.000  0.000  0.000  0.000  0.000  0.000  0.000  0.000  0.000  0.000
    4  0.000  0.000  0.000  0.000  0.000  0.000  0.000  0.000  0.000  0.000
tot    0.000  0.000  0.995  0.000  0.000  0.000  0.000  0.000  0.000  0.995
 
band     5 # energy  -39.84383596 # occ.  1.00000000
 
ion      s     py     pz     px    dxy    dyz    dz2    dxz  x2-y2    tot
    1  0.000  0.000  0.000  0.000  0.000  0.000  0.000  0.000  0.000  0.000
    2  0.000  0.237  0.000  0.759  0.000  0.000  0.000  0.000  0.000  0.995
    3  0.000  0.000  0.000  0.000  0.000  0.000  0.000  0.000  0.000  0.000
    4  0.000  0.000  0.000  0.000  0.000  0.000  0.000  0.000  0.000  0.000
tot    0.000  0.237  0.000  0.759  0.000  0.000  0.000  0.000  0.000  0.996
 
band     6 # energy  -39.84364834 # occ.  1.00000000
 
ion      s     py     pz     px    dxy    dyz    dz2    dxz  x2-y2    tot
    1  0.000  0.000  0.000  0.000  0.000  0.000  0.000  0.000  0.000  0.000
    2  0.000  0.759  0.000  0.237  0.000  0.000  0.000  0.000  0.000  0.996
    3  0.000  0.000  0.000  0.000  0.000  0.000  0.000  0.000  0.000  0.000
    4  0.000  0.000  0.000  0.000  0.000  0.000  0.000  0.000  0.000  0.000
tot    0.000  0.759  0.000  0.237  0.000  0.000  0.000  0.000  0.000  0.996
 
band     7 # energy   -5.38307039 # occ.  1.00000000
 
ion      s     py     pz     px    dxy    dyz    dz2    dxz  x2-y2    tot
    1  0.027  0.000  0.000  0.001  0.000  0.000  0.000  0.000  0.000  0.028
    2  0.000  0.000  0.004  0.000  0.000  0.000  0.000  0.000  0.000  0.005
    3  0.293  0.000  0.001  0.000  0.000  0.000  0.000  0.000  0.000  0.294
    4  0.293  0.000  0.001  0.000  0.000  0.000  0.000  0.000  0.000  0.294
tot    0.612  0.000  0.007  0.001  0.000  0.000  0.000  0.000  0.000  0.621
 
band     8 # energy   -5.34316529 # occ.  1.00000000
 
ion      s     py     pz     px    dxy    dyz    dz2    dxz  x2-y2    tot
    1  0.000  0.000  0.005  0.000  0.000  0.000  0.000  0.001  0.000  0.007
    2  0.021  0.000  0.000  0.001  0.000  0.000  0.000  0.000  0.000  0.022
    3  0.296  0.000  0.001  0.000  0.000  0.000  0.000  0.000  0.000  0.298
    4  0.296  0.000  0.001  0.000  0.000  0.000  0.000  0.000  0.000  0.298
tot    0.614  0.000  0.008  0.001  0.000  0.000  0.000  0.001  0.000  0.625
 
band     9 # energy    2.18165238 # occ.  1.00000000
 
ion      s     py     pz     px    dxy    dyz    dz2    dxz  x2-y2    tot
    1  0.058  0.000  0.000  0.001  0.000  0.001  0.227  0.004  0.000  0.291
    2  0.000  0.000  0.005  0.000  0.006  0.001  0.000  0.004  0.002  0.019
    3  0.021  0.002  0.097  0.005  0.000  0.000  0.001  0.000  0.000  0.126
    4  0.021  0.002  0.097  0.005  0.000  0.000  0.001  0.000  0.000  0.126
tot    0.101  0.004  0.198  0.011  0.006  0.003  0.228  0.008  0.002  0.561
 
band    10 # energy    2.22178744 # occ.  1.00000000
 
ion      s     py     pz     px    dxy    dyz    dz2    dxz  x2-y2    tot
    1  0.001  0.000  0.001  0.000  0.180  0.033  0.002  0.098  0.060  0.373
    2  0.034  0.000  0.000  0.000  0.000  0.000  0.005  0.001  0.000  0.040
    3  0.012  0.009  0.061  0.028  0.000  0.000  0.000  0.000  0.000  0.111
    4  0.012  0.009  0.061  0.028  0.000  0.000  0.000  0.000  0.000  0.111
tot    0.059  0.019  0.123  0.056  0.180  0.033  0.007  0.099  0.060  0.634
 
band    11 # energy    2.72954306 # occ.  1.00000000
 
ion      s     py     pz     px    dxy    dyz    dz2    dxz  x2-y2    tot
    1  0.000  0.000  0.000  0.000  0.100  0.221  0.000  0.074  0.301  0.696
    2  0.000  0.001  0.000  0.000  0.000  0.000  0.000  0.000  0.000  0.002
    3  0.000  0.039  0.000  0.013  0.000  0.001  0.000  0.000  0.000  0.053
    4  0.000  0.039  0.000  0.013  0.000  0.001  0.000  0.000  0.000  0.053
tot    0.000  0.079  0.000  0.026  0.101  0.223  0.000  0.074  0.302  0.805
 
band    12 # energy    3.12419304 # occ.  1.00000000
 
ion      s     py     pz     px    dxy    dyz    dz2    dxz  x2-y2    tot
    1  0.010  0.000  0.000  0.001  0.122  0.079  0.185  0.237  0.041  0.675
    2  0.000  0.000  0.002  0.001  0.009  0.002  0.000  0.006  0.003  0.023
    3  0.004  0.010  0.001  0.029  0.001  0.000  0.000  0.000  0.000  0.046
    4  0.004  0.010  0.001  0.029  0.001  0.000  0.000  0.000  0.000  0.046
tot    0.019  0.020  0.004  0.060  0.132  0.081  0.186  0.243  0.044  0.790
 
band    13 # energy    3.26075598 # occ.  1.00000000
 
ion      s     py     pz     px    dxy    dyz    dz2    dxz  x2-y2    tot
    1  0.000  0.000  0.000  0.000  0.091  0.365  0.000  0.122  0.273  0.851
    2  0.000  0.000  0.000  0.000  0.001  0.001  0.000  0.000  0.002  0.005
    3  0.000  0.007  0.000  0.002  0.000  0.000  0.000  0.000  0.001  0.011
    4  0.000  0.007  0.000  0.002  0.000  0.000  0.000  0.000  0.001  0.011
tot    0.000  0.016  0.000  0.005  0.092  0.367  0.000  0.122  0.276  0.878
 
band    14 # energy    3.29915915 # occ.  1.00000000
 
ion      s     py     pz     px    dxy    dyz    dz2    dxz  x2-y2    tot
    1  0.004  0.000  0.012  0.000  0.217  0.001  0.045  0.002  0.072  0.353
    2  0.021  0.001  0.000  0.003  0.002  0.000  0.029  0.000  0.001  0.057
    3  0.010  0.006  0.075  0.017  0.000  0.000  0.001  0.001  0.000  0.110
    4  0.010  0.006  0.075  0.017  0.000  0.000  0.001  0.001  0.000  0.110
tot    0.045  0.012  0.162  0.037  0.219  0.001  0.076  0.004  0.073  0.631
 
band    15 # energy    3.46598426 # occ.  1.00000000
 
ion      s     py     pz     px    dxy    dyz    dz2    dxz  x2-y2    tot
    1  0.022  0.000  0.003  0.000  0.019  0.081  0.247  0.243  0.006  0.622
    2  0.004  0.000  0.000  0.000  0.009  0.003  0.008  0.008  0.003  0.034
    3  0.011  0.005  0.030  0.014  0.001  0.000  0.000  0.000  0.000  0.061
    4  0.011  0.005  0.030  0.014  0.001  0.000  0.000  0.000  0.000  0.061
tot    0.048  0.010  0.063  0.030  0.029  0.084  0.256  0.251  0.010  0.779
 
band    16 # energy    4.50008955 # occ.  1.00000000
 
ion      s     py     pz     px    dxy    dyz    dz2    dxz  x2-y2    tot
    1  0.000  0.009  0.000  0.003  0.006  0.019  0.000  0.006  0.017  0.060
    2  0.000  0.001  0.000  0.000  0.028  0.078  0.000  0.026  0.085  0.217
    3  0.000  0.128  0.000  0.043  0.000  0.001  0.000  0.000  0.001  0.172
    4  0.000  0.128  0.000  0.043  0.000  0.001  0.000  0.000  0.001  0.172
tot    0.000  0.266  0.000  0.089  0.034  0.098  0.000  0.033  0.103  0.622
 
band    17 # energy    4.73207034 # occ.  1.00000000
 
ion      s     py     pz     px    dxy    dyz    dz2    dxz  x2-y2    tot
    1  0.006  0.004  0.001  0.011  0.020  0.002  0.180  0.005  0.007  0.234
    2  0.000  0.000  0.007  0.000  0.038  0.010  0.002  0.029  0.013  0.098
    3  0.002  0.029  0.041  0.087  0.000  0.000  0.000  0.000  0.000  0.160
    4  0.002  0.029  0.041  0.087  0.000  0.000  0.000  0.000  0.000  0.160
tot    0.010  0.061  0.090  0.184  0.058  0.011  0.182  0.034  0.019  0.651
 
band    18 # energy    5.30973645 # occ.  1.00000000
 
ion      s     py     pz     px    dxy    dyz    dz2    dxz  x2-y2    tot
    1  0.002  0.000  0.010  0.001  0.110  0.030  0.003  0.089  0.037  0.282
    2  0.019  0.002  0.000  0.007  0.017  0.003  0.030  0.010  0.006  0.095
    3  0.015  0.030  0.002  0.090  0.001  0.000  0.001  0.001  0.000  0.140
    4  0.015  0.030  0.002  0.090  0.001  0.000  0.001  0.001  0.000  0.140
tot    0.052  0.063  0.014  0.188  0.128  0.034  0.035  0.101  0.043  0.656
 
band    19 # energy    5.99066409 # occ.  1.00000000
 
ion      s     py     pz     px    dxy    dyz    dz2    dxz  x2-y2    tot
    1  0.000  0.003  0.000  0.001  0.027  0.072  0.000  0.024  0.081  0.208
    2  0.000  0.011  0.000  0.004  0.012  0.039  0.000  0.013  0.037  0.116
    3  0.000  0.125  0.000  0.042  0.000  0.001  0.000  0.000  0.001  0.170
    4  0.000  0.125  0.000  0.042  0.000  0.001  0.000  0.000  0.001  0.170
tot    0.000  0.264  0.000  0.088  0.040  0.113  0.000  0.038  0.120  0.663
 
band    20 # energy    6.91836805 # occ.  0.00000000
 
ion      s     py     pz     px    dxy    dyz    dz2    dxz  x2-y2    tot
    1  0.003  0.001  0.004  0.002  0.001  0.000  0.000  0.001  0.000  0.013
    2  0.011  0.000  0.000  0.000  0.171  0.071  0.197  0.213  0.057  0.720
    3  0.006  0.000  0.003  0.000  0.003  0.000  0.002  0.000  0.001  0.017
    4  0.006  0.000  0.003  0.000  0.003  0.000  0.002  0.000  0.001  0.017
tot    0.026  0.001  0.011  0.003  0.178  0.072  0.201  0.215  0.059  0.767
 
band    21 # energy    7.29706902 # occ.  0.00000000
 
ion      s     py     pz     px    dxy    dyz    dz2    dxz  x2-y2    tot
    1  0.000  0.000  0.000  0.000  0.004  0.010  0.000  0.003  0.012  0.030
    2  0.000  0.002  0.000  0.001  0.081  0.297  0.000  0.099  0.242  0.722
    3  0.000  0.028  0.000  0.009  0.001  0.000  0.000  0.000  0.002  0.041
    4  0.000  0.028  0.000  0.009  0.001  0.000  0.000  0.000  0.002  0.041
tot    0.000  0.060  0.000  0.020  0.086  0.308  0.000  0.103  0.258  0.833
 
band    22 # energy    7.43847760 # occ.  0.00000000
 
ion      s     py     pz     px    dxy    dyz    dz2    dxz  x2-y2    tot
    1  0.003  0.000  0.000  0.001  0.005  0.002  0.001  0.005  0.002  0.018
    2  0.003  0.001  0.001  0.003  0.149  0.009  0.454  0.027  0.050  0.696
    3  0.002  0.010  0.012  0.030  0.000  0.000  0.001  0.000  0.000  0.056
    4  0.002  0.010  0.012  0.030  0.000  0.000  0.001  0.000  0.000  0.056
tot    0.011  0.021  0.025  0.063  0.154  0.011  0.457  0.033  0.051  0.826
 
band    23 # energy    7.56889683 # occ.  0.00000000
 
ion      s     py     pz     px    dxy    dyz    dz2    dxz  x2-y2    tot
    1  0.032  0.003  0.000  0.008  0.003  0.000  0.006  0.001  0.001  0.053
    2  0.001  0.000  0.004  0.000  0.151  0.108  0.024  0.324  0.050  0.662
    3  0.016  0.006  0.006  0.017  0.000  0.001  0.000  0.004  0.000  0.050
    4  0.016  0.006  0.006  0.017  0.000  0.001  0.000  0.004  0.000  0.050
tot    0.066  0.014  0.015  0.042  0.155  0.111  0.031  0.332  0.052  0.816
 
band    24 # energy    8.04948763 # occ.  0.00000000
 
ion      s     py     pz     px    dxy    dyz    dz2    dxz  x2-y2    tot
    1  0.000  0.015  0.000  0.005  0.001  0.003  0.000  0.001  0.002  0.027
    2  0.000  0.001  0.000  0.000  0.085  0.230  0.000  0.077  0.254  0.648
    3  0.000  0.053  0.000  0.018  0.000  0.004  0.000  0.001  0.001  0.076
    4  0.000  0.053  0.000  0.018  0.000  0.004  0.000  0.001  0.001  0.076
tot    0.000  0.121  0.000  0.040  0.086  0.241  0.000  0.080  0.258  0.827
 

 k-point    27 :    0.15789474 0.00000000 0.50000000     weight = 0.02500000

band     1 # energy  -44.23147674 # occ.  1.00000000
 
ion      s     py     pz     px    dxy    dyz    dz2    dxz  x2-y2    tot
    1  0.000  0.240  0.000  0.755  0.000  0.000  0.000  0.000  0.000  0.995
    2  0.000  0.000  0.000  0.000  0.000  0.000  0.000  0.000  0.000  0.000
    3  0.000  0.000  0.000  0.000  0.000  0.000  0.000  0.000  0.000  0.000
    4  0.000  0.000  0.000  0.000  0.000  0.000  0.000  0.000  0.000  0.000
tot    0.000  0.240  0.000  0.755  0.000  0.000  0.000  0.000  0.000  0.995
 
band     2 # energy  -44.23130360 # occ.  1.00000000
 
ion      s     py     pz     px    dxy    dyz    dz2    dxz  x2-y2    tot
    1  0.000  0.755  0.000  0.240  0.000  0.000  0.000  0.000  0.000  0.995
    2  0.000  0.000  0.000  0.000  0.000  0.000  0.000  0.000  0.000  0.000
    3  0.000  0.000  0.000  0.000  0.000  0.000  0.000  0.000  0.000  0.000
    4  0.000  0.000  0.000  0.000  0.000  0.000  0.000  0.000  0.000  0.000
tot    0.000  0.755  0.000  0.240  0.000  0.000  0.000  0.000  0.000  0.995
 
band     3 # energy  -44.22825958 # occ.  1.00000000
 
ion      s     py     pz     px    dxy    dyz    dz2    dxz  x2-y2    tot
    1  0.000  0.000  0.995  0.000  0.000  0.000  0.000  0.000  0.000  0.995
    2  0.000  0.000  0.000  0.000  0.000  0.000  0.000  0.000  0.000  0.000
    3  0.000  0.000  0.000  0.000  0.000  0.000  0.000  0.000  0.000  0.000
    4  0.000  0.000  0.000  0.000  0.000  0.000  0.000  0.000  0.000  0.000
tot    0.000  0.000  0.995  0.000  0.000  0.000  0.000  0.000  0.000  0.995
 
band     4 # energy  -39.85056706 # occ.  1.00000000
 
ion      s     py     pz     px    dxy    dyz    dz2    dxz  x2-y2    tot
    1  0.000  0.000  0.000  0.000  0.000  0.000  0.000  0.000  0.000  0.000
    2  0.000  0.000  0.995  0.000  0.000  0.000  0.000  0.000  0.000  0.995
    3  0.000  0.000  0.000  0.000  0.000  0.000  0.000  0.000  0.000  0.000
    4  0.000  0.000  0.000  0.000  0.000  0.000  0.000  0.000  0.000  0.000
tot    0.000  0.000  0.995  0.000  0.000  0.000  0.000  0.000  0.000  0.995
 
band     5 # energy  -39.84393520 # occ.  1.00000000
 
ion      s     py     pz     px    dxy    dyz    dz2    dxz  x2-y2    tot
    1  0.000  0.000  0.000  0.000  0.000  0.000  0.000  0.000  0.000  0.000
    2  0.000  0.240  0.000  0.755  0.000  0.000  0.000  0.000  0.000  0.995
    3  0.000  0.000  0.000  0.000  0.000  0.000  0.000  0.000  0.000  0.000
    4  0.000  0.000  0.000  0.000  0.000  0.000  0.000  0.000  0.000  0.000
tot    0.000  0.240  0.000  0.755  0.000  0.000  0.000  0.000  0.000  0.996
 
band     6 # energy  -39.84367878 # occ.  1.00000000
 
ion      s     py     pz     px    dxy    dyz    dz2    dxz  x2-y2    tot
    1  0.000  0.000  0.000  0.000  0.000  0.000  0.000  0.000  0.000  0.000
    2  0.000  0.755  0.000  0.240  0.000  0.000  0.000  0.000  0.000  0.996
    3  0.000  0.000  0.000  0.000  0.000  0.000  0.000  0.000  0.000  0.000
    4  0.000  0.000  0.000  0.000  0.000  0.000  0.000  0.000  0.000  0.000
tot    0.000  0.756  0.000  0.240  0.000  0.000  0.000  0.000  0.000  0.996
 
band     7 # energy   -5.33723644 # occ.  1.00000000
 
ion      s     py     pz     px    dxy    dyz    dz2    dxz  x2-y2    tot
    1  0.026  0.000  0.000  0.001  0.000  0.000  0.000  0.000  0.000  0.027
    2  0.000  0.000  0.004  0.000  0.000  0.000  0.000  0.001  0.000  0.005
    3  0.294  0.000  0.001  0.000  0.000  0.000  0.000  0.000  0.000  0.296
    4  0.294  0.000  0.001  0.000  0.000  0.000  0.000  0.000  0.000  0.296
tot    0.615  0.001  0.006  0.002  0.000  0.000  0.000  0.001  0.000  0.625
 
band     8 # energy   -5.29989818 # occ.  1.00000000
 
ion      s     py     pz     px    dxy    dyz    dz2    dxz  x2-y2    tot
    1  0.000  0.000  0.005  0.000  0.000  0.000  0.000  0.001  0.000  0.007
    2  0.020  0.000  0.000  0.001  0.000  0.000  0.000  0.000  0.000  0.021
    3  0.298  0.000  0.001  0.000  0.000  0.000  0.000  0.000  0.000  0.300
    4  0.298  0.000  0.001  0.000  0.000  0.000  0.000  0.000  0.000  0.300
tot    0.617  0.000  0.007  0.001  0.000  0.000  0.000  0.001  0.000  0.628
 
band     9 # energy    2.12299677 # occ.  1.00000000
 
ion      s     py     pz     px    dxy    dyz    dz2    dxz  x2-y2    tot
    1  0.000  0.000  0.000  0.001  0.169  0.032  0.001  0.097  0.056  0.357
    2  0.036  0.000  0.000  0.000  0.000  0.000  0.004  0.000  0.000  0.040
    3  0.012  0.010  0.059  0.031  0.000  0.000  0.000  0.000  0.000  0.113
    4  0.012  0.010  0.059  0.031  0.000  0.000  0.000  0.000  0.000  0.113
tot    0.060  0.021  0.118  0.063  0.169  0.032  0.005  0.097  0.056  0.623
 
band    10 # energy    2.17716219 # occ.  1.00000000
 
ion      s     py     pz     px    dxy    dyz    dz2    dxz  x2-y2    tot
    1  0.063  0.000  0.000  0.000  0.007  0.000  0.184  0.001  0.002  0.259
    2  0.000  0.000  0.003  0.000  0.009  0.002  0.000  0.007  0.003  0.025
    3  0.023  0.003  0.096  0.009  0.000  0.000  0.000  0.000  0.000  0.133
    4  0.023  0.003  0.096  0.009  0.000  0.000  0.000  0.000  0.000  0.133
tot    0.110  0.007  0.196  0.020  0.016  0.003  0.185  0.008  0.005  0.550
 
band    11 # energy    2.73323924 # occ.  1.00000000
 
ion      s     py     pz     px    dxy    dyz    dz2    dxz  x2-y2    tot
    1  0.000  0.000  0.000  0.000  0.092  0.244  0.000  0.081  0.275  0.692
    2  0.000  0.001  0.000  0.000  0.000  0.000  0.000  0.000  0.000  0.003
    3  0.000  0.040  0.000  0.013  0.000  0.001  0.000  0.000  0.000  0.055
    4  0.000  0.040  0.000  0.013  0.000  0.001  0.000  0.000  0.000  0.055
tot    0.000  0.081  0.000  0.027  0.092  0.246  0.000  0.082  0.276  0.804
 
band    12 # energy    3.00741834 # occ.  1.00000000
 
ion      s     py     pz     px    dxy    dyz    dz2    dxz  x2-y2    tot
    1  0.011  0.001  0.000  0.002  0.060  0.055  0.293  0.164  0.020  0.605
    2  0.000  0.000  0.004  0.001  0.010  0.002  0.000  0.006  0.003  0.028
    3  0.005  0.013  0.000  0.039  0.001  0.000  0.001  0.000  0.000  0.058
    4  0.005  0.013  0.000  0.039  0.001  0.000  0.001  0.000  0.000  0.058
tot    0.021  0.027  0.005  0.080  0.071  0.057  0.294  0.170  0.024  0.749
 
band    13 # energy    3.24817779 # occ.  1.00000000
 
ion      s     py     pz     px    dxy    dyz    dz2    dxz  x2-y2    tot
    1  0.000  0.001  0.000  0.000  0.099  0.330  0.000  0.110  0.297  0.837
    2  0.000  0.000  0.000  0.000  0.001  0.002  0.000  0.001  0.002  0.006
    3  0.000  0.010  0.000  0.003  0.000  0.000  0.000  0.000  0.001  0.014
    4  0.000  0.010  0.000  0.003  0.000  0.000  0.000  0.000  0.001  0.014
tot    0.000  0.021  0.000  0.007  0.100  0.332  0.000  0.111  0.300  0.871
 
band    14 # energy    3.34170171 # occ.  1.00000000
 
ion      s     py     pz     px    dxy    dyz    dz2    dxz  x2-y2    tot
    1  0.010  0.000  0.005  0.000  0.278  0.029  0.110  0.086  0.093  0.609
    2  0.009  0.001  0.000  0.002  0.004  0.001  0.012  0.002  0.001  0.031
    3  0.007  0.004  0.035  0.011  0.000  0.000  0.001  0.000  0.000  0.058
    4  0.007  0.004  0.035  0.011  0.000  0.000  0.001  0.000  0.000  0.058
tot    0.032  0.008  0.076  0.023  0.282  0.029  0.124  0.088  0.094  0.756
 
band    15 # energy    3.50597421 # occ.  1.00000000
 
ion      s     py     pz     px    dxy    dyz    dz2    dxz  x2-y2    tot
    1  0.009  0.000  0.012  0.000  0.005  0.073  0.096  0.219  0.002  0.415
    2  0.013  0.001  0.000  0.003  0.003  0.002  0.029  0.005  0.001  0.055
    3  0.010  0.005  0.068  0.016  0.001  0.000  0.001  0.000  0.000  0.101
    4  0.010  0.005  0.068  0.016  0.001  0.000  0.001  0.000  0.000  0.101
tot    0.042  0.011  0.148  0.034  0.009  0.075  0.126  0.224  0.003  0.673
 
band    16 # energy    4.48821505 # occ.  1.00000000
 
ion      s     py     pz     px    dxy    dyz    dz2    dxz  x2-y2    tot
    1  0.000  0.010  0.000  0.003  0.008  0.023  0.000  0.008  0.025  0.077
    2  0.000  0.001  0.000  0.000  0.025  0.080  0.000  0.027  0.075  0.208
    3  0.000  0.126  0.000  0.042  0.000  0.001  0.000  0.000  0.001  0.170
    4  0.000  0.126  0.000  0.042  0.000  0.001  0.000  0.000  0.001  0.170
tot    0.000  0.264  0.000  0.088  0.034  0.104  0.000  0.035  0.101  0.626
 
band    17 # energy    4.72306285 # occ.  1.00000000
 
ion      s     py     pz     px    dxy    dyz    dz2    dxz  x2-y2    tot
    1  0.003  0.004  0.003  0.013  0.058  0.000  0.180  0.000  0.019  0.280
    2  0.002  0.000  0.008  0.000  0.016  0.008  0.007  0.025  0.005  0.071
    3  0.004  0.027  0.041  0.081  0.000  0.000  0.000  0.000  0.000  0.154
    4  0.004  0.027  0.041  0.081  0.000  0.000  0.000  0.000  0.000  0.154
tot    0.011  0.058  0.093  0.174  0.075  0.008  0.188  0.025  0.025  0.658
 
band    18 # energy    5.08674832 # occ.  1.00000000
 
ion      s     py     pz     px    dxy    dyz    dz2    dxz  x2-y2    tot
    1  0.005  0.000  0.008  0.000  0.091  0.037  0.029  0.110  0.030  0.309
    2  0.021  0.002  0.002  0.006  0.024  0.001  0.017  0.004  0.008  0.086
    3  0.014  0.026  0.011  0.078  0.000  0.000  0.001  0.001  0.000  0.132
    4  0.014  0.026  0.011  0.078  0.000  0.000  0.001  0.001  0.000  0.132
tot    0.055  0.054  0.031  0.163  0.116  0.039  0.048  0.116  0.039  0.660
 
band    19 # energy    5.88658860 # occ.  1.00000000
 
ion      s     py     pz     px    dxy    dyz    dz2    dxz  x2-y2    tot
    1  0.000  0.003  0.000  0.001  0.025  0.079  0.000  0.026  0.076  0.212
    2  0.000  0.011  0.000  0.004  0.013  0.036  0.000  0.012  0.040  0.116
    3  0.000  0.121  0.000  0.040  0.000  0.001  0.000  0.000  0.001  0.165
    4  0.000  0.121  0.000  0.040  0.000  0.001  0.000  0.000  0.001  0.165
tot    0.000  0.257  0.000  0.086  0.040  0.117  0.000  0.039  0.119  0.658
 
band    20 # energy    6.88782371 # occ.  0.00000000
 
ion      s     py     pz     px    dxy    dyz    dz2    dxz  x2-y2    tot
    1  0.005  0.001  0.004  0.003  0.001  0.001  0.001  0.002  0.000  0.018
    2  0.012  0.000  0.000  0.000  0.192  0.063  0.184  0.188  0.064  0.703
    3  0.006  0.000  0.004  0.000  0.003  0.000  0.002  0.001  0.001  0.018
    4  0.006  0.000  0.004  0.000  0.003  0.000  0.002  0.001  0.001  0.018
tot    0.030  0.001  0.012  0.003  0.200  0.064  0.188  0.191  0.067  0.756
 
band    21 # energy    7.35798953 # occ.  0.00000000
 
ion      s     py     pz     px    dxy    dyz    dz2    dxz  x2-y2    tot
    1  0.000  0.000  0.000  0.000  0.004  0.011  0.000  0.004  0.011  0.029
    2  0.000  0.003  0.000  0.001  0.089  0.279  0.000  0.093  0.267  0.731
    3  0.000  0.028  0.000  0.009  0.001  0.000  0.000  0.000  0.002  0.040
    4  0.000  0.028  0.000  0.009  0.001  0.000  0.000  0.000  0.002  0.040
tot    0.000  0.060  0.000  0.020  0.094  0.291  0.000  0.097  0.281  0.841
 
band    22 # energy    7.40631986 # occ.  0.00000000
 
ion      s     py     pz     px    dxy    dyz    dz2    dxz  x2-y2    tot
    1  0.032  0.002  0.000  0.005  0.000  0.001  0.004  0.004  0.000  0.048
    2  0.000  0.000  0.002  0.001  0.280  0.036  0.153  0.109  0.093  0.676
    3  0.014  0.005  0.008  0.014  0.000  0.001  0.001  0.004  0.000  0.047
    4  0.014  0.005  0.008  0.014  0.000  0.001  0.001  0.004  0.000  0.047
tot    0.061  0.012  0.018  0.035  0.281  0.040  0.158  0.120  0.093  0.818
 
band    23 # energy    7.54185993 # occ.  0.00000000
 
ion      s     py     pz     px    dxy    dyz    dz2    dxz  x2-y2    tot
    1  0.008  0.001  0.000  0.002  0.005  0.000  0.001  0.000  0.002  0.019
    2  0.003  0.001  0.000  0.002  0.000  0.092  0.360  0.275  0.000  0.732
    3  0.005  0.007  0.010  0.021  0.000  0.000  0.001  0.001  0.000  0.046
    4  0.005  0.007  0.010  0.021  0.000  0.000  0.001  0.001  0.000  0.046
tot    0.021  0.015  0.021  0.046  0.006  0.092  0.362  0.277  0.002  0.844
 
band    24 # energy    7.99800280 # occ.  0.00000000
 
ion      s     py     pz     px    dxy    dyz    dz2    dxz  x2-y2    tot
    1  0.000  0.015  0.000  0.005  0.001  0.004  0.000  0.001  0.003  0.028
    2  0.000  0.002  0.000  0.001  0.080  0.250  0.000  0.083  0.240  0.656
    3  0.000  0.048  0.000  0.016  0.000  0.004  0.000  0.001  0.001  0.071
    4  0.000  0.048  0.000  0.016  0.000  0.004  0.000  0.001  0.001  0.071
tot    0.000  0.113  0.000  0.038  0.081  0.262  0.000  0.087  0.244  0.826
 

 k-point    28 :    0.18421053 0.00000000 0.50000000     weight = 0.02500000

band     1 # energy  -44.23155891 # occ.  1.00000000
 
ion      s     py     pz     px    dxy    dyz    dz2    dxz  x2-y2    tot
    1  0.000  0.242  0.000  0.753  0.000  0.000  0.000  0.000  0.000  0.995
    2  0.000  0.000  0.000  0.000  0.000  0.000  0.000  0.000  0.000  0.000
    3  0.000  0.000  0.000  0.000  0.000  0.000  0.000  0.000  0.000  0.000
    4  0.000  0.000  0.000  0.000  0.000  0.000  0.000  0.000  0.000  0.000
tot    0.000  0.242  0.000  0.753  0.000  0.000  0.000  0.000  0.000  0.995
 
band     2 # energy  -44.23132931 # occ.  1.00000000
 
ion      s     py     pz     px    dxy    dyz    dz2    dxz  x2-y2    tot
    1  0.000  0.753  0.000  0.242  0.000  0.000  0.000  0.000  0.000  0.995
    2  0.000  0.000  0.000  0.000  0.000  0.000  0.000  0.000  0.000  0.000
    3  0.000  0.000  0.000  0.000  0.000  0.000  0.000  0.000  0.000  0.000
    4  0.000  0.000  0.000  0.000  0.000  0.000  0.000  0.000  0.000  0.000
tot    0.000  0.753  0.000  0.242  0.000  0.000  0.000  0.000  0.000  0.995
 
band     3 # energy  -44.22825872 # occ.  1.00000000
 
ion      s     py     pz     px    dxy    dyz    dz2    dxz  x2-y2    tot
    1  0.000  0.000  0.995  0.000  0.000  0.000  0.000  0.000  0.000  0.995
    2  0.000  0.000  0.000  0.000  0.000  0.000  0.000  0.000  0.000  0.000
    3  0.000  0.000  0.000  0.000  0.000  0.000  0.000  0.000  0.000  0.000
    4  0.000  0.000  0.000  0.000  0.000  0.000  0.000  0.000  0.000  0.000
tot    0.000  0.000  0.995  0.000  0.000  0.000  0.000  0.000  0.000  0.995
 
band     4 # energy  -39.85056108 # occ.  1.00000000
 
ion      s     py     pz     px    dxy    dyz    dz2    dxz  x2-y2    tot
    1  0.000  0.000  0.000  0.000  0.000  0.000  0.000  0.000  0.000  0.000
    2  0.000  0.000  0.995  0.000  0.000  0.000  0.000  0.000  0.000  0.995
    3  0.000  0.000  0.000  0.000  0.000  0.000  0.000  0.000  0.000  0.000
    4  0.000  0.000  0.000  0.000  0.000  0.000  0.000  0.000  0.000  0.000
tot    0.000  0.000  0.995  0.000  0.000  0.000  0.000  0.000  0.000  0.995
 
band     5 # energy  -39.84405535 # occ.  1.00000000
 
ion      s     py     pz     px    dxy    dyz    dz2    dxz  x2-y2    tot
    1  0.000  0.000  0.000  0.000  0.000  0.000  0.000  0.000  0.000  0.000
    2  0.000  0.242  0.000  0.753  0.000  0.000  0.000  0.000  0.000  0.995
    3  0.000  0.000  0.000  0.000  0.000  0.000  0.000  0.000  0.000  0.000
    4  0.000  0.000  0.000  0.000  0.000  0.000  0.000  0.000  0.000  0.000
tot    0.000  0.242  0.000  0.753  0.000  0.000  0.000  0.000  0.000  0.995
 
band     6 # energy  -39.84371526 # occ.  1.00000000
 
ion      s     py     pz     px    dxy    dyz    dz2    dxz  x2-y2    tot
    1  0.000  0.000  0.000  0.000  0.000  0.000  0.000  0.000  0.000  0.000
    2  0.000  0.753  0.000  0.242  0.000  0.000  0.000  0.000  0.000  0.996
    3  0.000  0.000  0.000  0.000  0.000  0.000  0.000  0.000  0.000  0.000
    4  0.000  0.000  0.000  0.000  0.000  0.000  0.000  0.000  0.000  0.000
tot    0.000  0.753  0.000  0.242  0.000  0.000  0.000  0.000  0.000  0.996
 
band     7 # energy   -5.28486040 # occ.  1.00000000
 
ion      s     py     pz     px    dxy    dyz    dz2    dxz  x2-y2    tot
    1  0.024  0.000  0.000  0.001  0.000  0.000  0.000  0.000  0.000  0.026
    2  0.000  0.000  0.004  0.000  0.000  0.000  0.000  0.001  0.000  0.006
    3  0.297  0.000  0.001  0.000  0.000  0.000  0.000  0.000  0.000  0.298
    4  0.297  0.000  0.001  0.000  0.000  0.000  0.000  0.000  0.000  0.298
tot    0.618  0.001  0.006  0.002  0.000  0.000  0.000  0.001  0.000  0.628
 
band     8 # energy   -5.25049538 # occ.  1.00000000
 
ion      s     py     pz     px    dxy    dyz    dz2    dxz  x2-y2    tot
    1  0.000  0.000  0.005  0.000  0.001  0.000  0.000  0.001  0.000  0.008
    2  0.019  0.000  0.000  0.001  0.000  0.000  0.000  0.000  0.000  0.020
    3  0.300  0.000  0.001  0.000  0.000  0.000  0.000  0.000  0.000  0.302
    4  0.300  0.000  0.001  0.000  0.000  0.000  0.000  0.000  0.000  0.302
tot    0.619  0.001  0.007  0.002  0.001  0.001  0.000  0.002  0.000  0.632
 
band     9 # energy    2.02577235 # occ.  1.00000000
 
ion      s     py     pz     px    dxy    dyz    dz2    dxz  x2-y2    tot
    1  0.000  0.000  0.000  0.001  0.164  0.030  0.000  0.089  0.055  0.339
    2  0.038  0.000  0.000  0.000  0.000  0.000  0.002  0.001  0.000  0.041
    3  0.012  0.012  0.057  0.035  0.000  0.000  0.000  0.000  0.000  0.115
    4  0.012  0.012  0.057  0.035  0.000  0.000  0.000  0.000  0.000  0.115
tot    0.062  0.024  0.113  0.071  0.164  0.030  0.003  0.090  0.055  0.610
 
band    10 # energy    2.15057002 # occ.  1.00000000
 
ion      s     py     pz     px    dxy    dyz    dz2    dxz  x2-y2    tot
    1  0.070  0.000  0.000  0.000  0.007  0.002  0.127  0.007  0.002  0.217
    2  0.000  0.000  0.002  0.001  0.013  0.003  0.000  0.009  0.004  0.033
    3  0.025  0.006  0.092  0.018  0.000  0.000  0.000  0.000  0.000  0.141
    4  0.025  0.006  0.092  0.018  0.000  0.000  0.000  0.000  0.000  0.141
tot    0.120  0.012  0.186  0.037  0.020  0.005  0.128  0.016  0.007  0.532
 
band    11 # energy    2.73523127 # occ.  1.00000000
 
ion      s     py     pz     px    dxy    dyz    dz2    dxz  x2-y2    tot
    1  0.000  0.000  0.000  0.000  0.081  0.271  0.000  0.090  0.244  0.687
    2  0.000  0.002  0.000  0.001  0.000  0.000  0.000  0.000  0.000  0.003
    3  0.000  0.041  0.000  0.014  0.000  0.001  0.000  0.000  0.000  0.056
    4  0.000  0.041  0.000  0.014  0.000  0.001  0.000  0.000  0.000  0.056
tot    0.000  0.084  0.000  0.028  0.082  0.273  0.000  0.091  0.245  0.802
 
band    12 # energy    2.89179513 # occ.  1.00000000
 
ion      s     py     pz     px    dxy    dyz    dz2    dxz  x2-y2    tot
    1  0.008  0.001  0.000  0.003  0.030  0.039  0.381  0.117  0.010  0.589
    2  0.000  0.000  0.007  0.001  0.007  0.002  0.000  0.005  0.002  0.024
    3  0.003  0.013  0.002  0.040  0.000  0.000  0.001  0.000  0.000  0.059
    4  0.003  0.013  0.002  0.040  0.000  0.000  0.001  0.000  0.000  0.059
tot    0.015  0.028  0.010  0.083  0.038  0.041  0.383  0.122  0.013  0.732
 
band    13 # energy    3.23825368 # occ.  1.00000000
 
ion      s     py     pz     px    dxy    dyz    dz2    dxz  x2-y2    tot
    1  0.000  0.001  0.000  0.000  0.108  0.291  0.000  0.097  0.325  0.822
    2  0.000  0.000  0.000  0.000  0.001  0.003  0.000  0.001  0.002  0.007
    3  0.000  0.012  0.000  0.004  0.000  0.000  0.000  0.000  0.001  0.017
    4  0.000  0.012  0.000  0.004  0.000  0.000  0.000  0.000  0.001  0.017
tot    0.000  0.026  0.000  0.009  0.109  0.293  0.000  0.098  0.328  0.863
 
band    14 # energy    3.34191446 # occ.  1.00000000
 
ion      s     py     pz     px    dxy    dyz    dz2    dxz  x2-y2    tot
    1  0.011  0.000  0.002  0.000  0.262  0.067  0.114  0.200  0.087  0.742
    2  0.004  0.000  0.001  0.001  0.004  0.001  0.004  0.002  0.001  0.017
    3  0.005  0.002  0.017  0.006  0.000  0.000  0.001  0.000  0.000  0.031
    4  0.005  0.002  0.017  0.006  0.000  0.000  0.001  0.000  0.000  0.031
tot    0.024  0.004  0.037  0.012  0.267  0.068  0.119  0.203  0.089  0.822
 
band    15 # energy    3.59979309 # occ.  1.00000000
 
ion      s     py     pz     px    dxy    dyz    dz2    dxz  x2-y2    tot
    1  0.005  0.000  0.017  0.000  0.028  0.044  0.046  0.133  0.009  0.283
    2  0.014  0.002  0.000  0.005  0.001  0.001  0.041  0.004  0.000  0.069
    3  0.009  0.007  0.088  0.020  0.001  0.000  0.001  0.001  0.000  0.127
    4  0.009  0.007  0.088  0.020  0.001  0.000  0.001  0.001  0.000  0.127
tot    0.037  0.015  0.194  0.044  0.031  0.046  0.089  0.138  0.010  0.605
 
band    16 # energy    4.46938233 # occ.  1.00000000
 
ion      s     py     pz     px    dxy    dyz    dz2    dxz  x2-y2    tot
    1  0.000  0.011  0.000  0.004  0.012  0.026  0.000  0.009  0.035  0.095
    2  0.000  0.001  0.000  0.000  0.022  0.083  0.000  0.028  0.065  0.198
    3  0.000  0.125  0.000  0.042  0.000  0.000  0.000  0.000  0.001  0.168
    4  0.000  0.125  0.000  0.042  0.000  0.000  0.000  0.000  0.001  0.168
tot    0.000  0.261  0.000  0.087  0.034  0.110  0.000  0.037  0.101  0.629
 
band    17 # energy    4.59860660 # occ.  1.00000000
 
ion      s     py     pz     px    dxy    dyz    dz2    dxz  x2-y2    tot
    1  0.000  0.004  0.007  0.011  0.137  0.007  0.121  0.022  0.046  0.353
    2  0.009  0.001  0.004  0.002  0.001  0.007  0.012  0.021  0.000  0.058
    3  0.009  0.024  0.024  0.073  0.001  0.000  0.000  0.000  0.000  0.133
    4  0.009  0.024  0.024  0.073  0.001  0.000  0.000  0.000  0.000  0.133
tot    0.027  0.053  0.060  0.159  0.139  0.014  0.134  0.043  0.046  0.676
 
band    18 # energy    4.98007921 # occ.  1.00000000
 
ion      s     py     pz     px    dxy    dyz    dz2    dxz  x2-y2    tot
    1  0.006  0.001  0.003  0.003  0.038  0.036  0.109  0.108  0.013  0.318
    2  0.016  0.001  0.007  0.004  0.026  0.000  0.004  0.000  0.009  0.068
    3  0.010  0.023  0.036  0.068  0.000  0.000  0.001  0.001  0.000  0.138
    4  0.010  0.023  0.036  0.068  0.000  0.000  0.001  0.001  0.000  0.138
tot    0.042  0.047  0.081  0.142  0.064  0.037  0.114  0.111  0.021  0.662
 
band    19 # energy    5.79067153 # occ.  1.00000000
 
ion      s     py     pz     px    dxy    dyz    dz2    dxz  x2-y2    tot
    1  0.000  0.003  0.000  0.001  0.024  0.089  0.000  0.030  0.071  0.218
    2  0.000  0.012  0.000  0.004  0.014  0.030  0.000  0.010  0.042  0.112
    3  0.000  0.119  0.000  0.040  0.000  0.001  0.000  0.000  0.001  0.161
    4  0.000  0.119  0.000  0.040  0.000  0.001  0.000  0.000  0.001  0.161
tot    0.000  0.252  0.000  0.084  0.038  0.122  0.000  0.041  0.115  0.653
 
band    20 # energy    6.85002563 # occ.  0.00000000
 
ion      s     py     pz     px    dxy    dyz    dz2    dxz  x2-y2    tot
    1  0.009  0.001  0.004  0.003  0.002  0.001  0.001  0.003  0.001  0.024
    2  0.013  0.000  0.000  0.000  0.220  0.052  0.167  0.156  0.073  0.681
    3  0.007  0.000  0.004  0.001  0.004  0.000  0.002  0.001  0.001  0.019
    4  0.007  0.000  0.004  0.001  0.004  0.000  0.002  0.001  0.001  0.019
tot    0.035  0.001  0.013  0.004  0.229  0.054  0.171  0.161  0.076  0.743
 
band    21 # energy    7.31981702 # occ.  0.00000000
 
ion      s     py     pz     px    dxy    dyz    dz2    dxz  x2-y2    tot
    1  0.040  0.001  0.000  0.004  0.000  0.001  0.002  0.003  0.000  0.051
    2  0.000  0.000  0.001  0.000  0.241  0.068  0.103  0.204  0.080  0.700
    3  0.017  0.002  0.005  0.007  0.000  0.001  0.001  0.004  0.000  0.037
    4  0.017  0.002  0.005  0.007  0.000  0.001  0.001  0.004  0.000  0.037
tot    0.074  0.006  0.012  0.018  0.242  0.072  0.107  0.215  0.081  0.826
 
band    22 # energy    7.40851896 # occ.  0.00000000
 
ion      s     py     pz     px    dxy    dyz    dz2    dxz  x2-y2    tot
    1  0.000  0.000  0.000  0.000  0.003  0.011  0.000  0.004  0.009  0.028
    2  0.000  0.003  0.000  0.001  0.100  0.255  0.000  0.085  0.300  0.745
    3  0.000  0.027  0.000  0.009  0.000  0.000  0.000  0.000  0.001  0.038
    4  0.000  0.027  0.000  0.009  0.000  0.000  0.000  0.000  0.001  0.038
tot    0.000  0.057  0.000  0.019  0.104  0.267  0.000  0.089  0.312  0.849
 
band    23 # energy    7.58826561 # occ.  0.00000000
 
ion      s     py     pz     px    dxy    dyz    dz2    dxz  x2-y2    tot
    1  0.004  0.000  0.000  0.001  0.003  0.000  0.000  0.000  0.001  0.011
    2  0.002  0.001  0.000  0.002  0.013  0.073  0.443  0.218  0.004  0.756
    3  0.002  0.007  0.013  0.020  0.000  0.000  0.001  0.000  0.000  0.044
    4  0.002  0.007  0.013  0.020  0.000  0.000  0.001  0.000  0.000  0.044
tot    0.011  0.015  0.025  0.044  0.017  0.073  0.445  0.219  0.006  0.855
 
band    24 # energy    7.94609892 # occ.  0.00000000
 
ion      s     py     pz     px    dxy    dyz    dz2    dxz  x2-y2    tot
    1  0.000  0.015  0.000  0.005  0.001  0.004  0.000  0.001  0.004  0.030
    2  0.000  0.002  0.000  0.001  0.073  0.278  0.000  0.093  0.218  0.664
    3  0.000  0.044  0.000  0.015  0.000  0.004  0.000  0.001  0.001  0.066
    4  0.000  0.044  0.000  0.015  0.000  0.004  0.000  0.001  0.001  0.066
tot    0.000  0.105  0.000  0.035  0.074  0.290  0.000  0.097  0.223  0.825
 

 k-point    29 :    0.21052632 0.00000000 0.50000000     weight = 0.02500000

band     1 # energy  -44.23163602 # occ.  1.00000000
 
ion      s     py     pz     px    dxy    dyz    dz2    dxz  x2-y2    tot
    1  0.000  0.244  0.000  0.752  0.000  0.000  0.000  0.000  0.000  0.995
    2  0.000  0.000  0.000  0.000  0.000  0.000  0.000  0.000  0.000  0.000
    3  0.000  0.000  0.000  0.000  0.000  0.000  0.000  0.000  0.000  0.000
    4  0.000  0.000  0.000  0.000  0.000  0.000  0.000  0.000  0.000  0.000
tot    0.000  0.244  0.000  0.752  0.000  0.000  0.000  0.000  0.000  0.995
 
band     2 # energy  -44.23135205 # occ.  1.00000000
 
ion      s     py     pz     px    dxy    dyz    dz2    dxz  x2-y2    tot
    1  0.000  0.752  0.000  0.244  0.000  0.000  0.000  0.000  0.000  0.995
    2  0.000  0.000  0.000  0.000  0.000  0.000  0.000  0.000  0.000  0.000
    3  0.000  0.000  0.000  0.000  0.000  0.000  0.000  0.000  0.000  0.000
    4  0.000  0.000  0.000  0.000  0.000  0.000  0.000  0.000  0.000  0.000
tot    0.000  0.752  0.000  0.244  0.000  0.000  0.000  0.000  0.000  0.995
 
band     3 # energy  -44.22824621 # occ.  1.00000000
 
ion      s     py     pz     px    dxy    dyz    dz2    dxz  x2-y2    tot
    1  0.000  0.000  0.995  0.000  0.000  0.000  0.000  0.000  0.000  0.995
    2  0.000  0.000  0.000  0.000  0.000  0.000  0.000  0.000  0.000  0.000
    3  0.000  0.000  0.000  0.000  0.000  0.000  0.000  0.000  0.000  0.000
    4  0.000  0.000  0.000  0.000  0.000  0.000  0.000  0.000  0.000  0.000
tot    0.000  0.000  0.995  0.000  0.000  0.000  0.000  0.000  0.000  0.995
 
band     4 # energy  -39.85054165 # occ.  1.00000000
 
ion      s     py     pz     px    dxy    dyz    dz2    dxz  x2-y2    tot
    1  0.000  0.000  0.000  0.000  0.000  0.000  0.000  0.000  0.000  0.000
    2  0.000  0.000  0.995  0.000  0.000  0.000  0.000  0.000  0.000  0.995
    3  0.000  0.000  0.000  0.000  0.000  0.000  0.000  0.000  0.000  0.000
    4  0.000  0.000  0.000  0.000  0.000  0.000  0.000  0.000  0.000  0.000
tot    0.000  0.000  0.995  0.000  0.000  0.000  0.000  0.000  0.000  0.995
 
band     5 # energy  -39.84417067 # occ.  1.00000000
 
ion      s     py     pz     px    dxy    dyz    dz2    dxz  x2-y2    tot
    1  0.000  0.000  0.000  0.000  0.000  0.000  0.000  0.000  0.000  0.000
    2  0.000  0.243  0.000  0.752  0.000  0.000  0.000  0.000  0.000  0.995
    3  0.000  0.000  0.000  0.000  0.000  0.000  0.000  0.000  0.000  0.000
    4  0.000  0.000  0.000  0.000  0.000  0.000  0.000  0.000  0.000  0.000
tot    0.000  0.243  0.000  0.752  0.000  0.000  0.000  0.000  0.000  0.995
 
band     6 # energy  -39.84374780 # occ.  1.00000000
 
ion      s     py     pz     px    dxy    dyz    dz2    dxz  x2-y2    tot
    1  0.000  0.000  0.000  0.000  0.000  0.000  0.000  0.000  0.000  0.000
    2  0.000  0.752  0.000  0.243  0.000  0.000  0.000  0.000  0.000  0.996
    3  0.000  0.000  0.000  0.000  0.000  0.000  0.000  0.000  0.000  0.000
    4  0.000  0.000  0.000  0.000  0.000  0.000  0.000  0.000  0.000  0.000
tot    0.000  0.752  0.000  0.243  0.000  0.000  0.000  0.000  0.000  0.996
 
band     7 # energy   -5.22691549 # occ.  1.00000000
 
ion      s     py     pz     px    dxy    dyz    dz2    dxz  x2-y2    tot
    1  0.023  0.001  0.000  0.002  0.000  0.000  0.000  0.000  0.000  0.025
    2  0.000  0.000  0.004  0.000  0.000  0.000  0.000  0.001  0.000  0.006
    3  0.299  0.000  0.001  0.000  0.000  0.000  0.000  0.000  0.000  0.301
    4  0.299  0.000  0.001  0.000  0.000  0.000  0.000  0.000  0.000  0.301
tot    0.621  0.001  0.005  0.003  0.001  0.000  0.000  0.001  0.000  0.633
 
band     8 # energy   -5.19586919 # occ.  1.00000000
 
ion      s     py     pz     px    dxy    dyz    dz2    dxz  x2-y2    tot
    1  0.000  0.000  0.004  0.000  0.001  0.001  0.000  0.002  0.000  0.008
    2  0.018  0.000  0.000  0.001  0.000  0.000  0.000  0.000  0.000  0.020
    3  0.303  0.000  0.001  0.000  0.000  0.000  0.000  0.000  0.000  0.304
    4  0.303  0.000  0.001  0.000  0.000  0.000  0.000  0.000  0.000  0.304
tot    0.623  0.001  0.006  0.002  0.001  0.001  0.000  0.002  0.000  0.636
 
band     9 # energy    1.92872285 # occ.  1.00000000
 
ion      s     py     pz     px    dxy    dyz    dz2    dxz  x2-y2    tot
    1  0.000  0.001  0.000  0.002  0.156  0.026  0.000  0.079  0.052  0.316
    2  0.039  0.000  0.000  0.000  0.000  0.000  0.001  0.001  0.000  0.043
    3  0.012  0.013  0.054  0.039  0.000  0.000  0.000  0.000  0.000  0.118
    4  0.012  0.013  0.054  0.039  0.000  0.000  0.000  0.000  0.000  0.118
tot    0.063  0.026  0.108  0.079  0.156  0.027  0.002  0.080  0.052  0.593
 
band    10 # energy    2.08925553 # occ.  1.00000000
 
ion      s     py     pz     px    dxy    dyz    dz2    dxz  x2-y2    tot
    1  0.076  0.000  0.000  0.000  0.009  0.005  0.066  0.015  0.003  0.175
    2  0.000  0.001  0.000  0.002  0.017  0.004  0.000  0.011  0.006  0.040
    3  0.026  0.010  0.082  0.030  0.000  0.000  0.000  0.000  0.000  0.149
    4  0.026  0.010  0.082  0.030  0.000  0.000  0.000  0.000  0.000  0.149
tot    0.128  0.021  0.165  0.062  0.026  0.009  0.066  0.026  0.009  0.512
 
band    11 # energy    2.73459267 # occ.  1.00000000
 
ion      s     py     pz     px    dxy    dyz    dz2    dxz  x2-y2    tot
    1  0.000  0.000  0.000  0.000  0.070  0.301  0.000  0.100  0.210  0.681
    2  0.000  0.002  0.000  0.001  0.000  0.000  0.000  0.000  0.000  0.004
    3  0.000  0.042  0.000  0.014  0.000  0.001  0.000  0.000  0.000  0.057
    4  0.000  0.042  0.000  0.014  0.000  0.001  0.000  0.000  0.000  0.057
tot    0.000  0.086  0.000  0.029  0.070  0.302  0.000  0.101  0.211  0.800
 
band    12 # energy    2.80281223 # occ.  1.00000000
 
ion      s     py     pz     px    dxy    dyz    dz2    dxz  x2-y2    tot
    1  0.003  0.001  0.000  0.004  0.013  0.029  0.454  0.087  0.004  0.595
    2  0.000  0.000  0.009  0.001  0.003  0.001  0.000  0.002  0.001  0.017
    3  0.001  0.011  0.009  0.034  0.000  0.000  0.001  0.000  0.000  0.057
    4  0.001  0.011  0.009  0.034  0.000  0.000  0.001  0.000  0.000  0.057
tot    0.006  0.024  0.026  0.072  0.017  0.030  0.457  0.089  0.006  0.726
 
band    13 # energy    3.23283700 # occ.  1.00000000
 
ion      s     py     pz     px    dxy    dyz    dz2    dxz  x2-y2    tot
    1  0.000  0.001  0.000  0.000  0.119  0.248  0.000  0.083  0.357  0.809
    2  0.000  0.000  0.000  0.000  0.001  0.003  0.000  0.001  0.002  0.008
    3  0.000  0.015  0.000  0.005  0.000  0.000  0.000  0.000  0.000  0.020
    4  0.000  0.015  0.000  0.005  0.000  0.000  0.000  0.000  0.000  0.020
tot    0.000  0.031  0.000  0.010  0.120  0.252  0.000  0.084  0.360  0.857
 
band    14 # energy    3.33507180 # occ.  1.00000000
 
ion      s     py     pz     px    dxy    dyz    dz2    dxz  x2-y2    tot
    1  0.010  0.000  0.001  0.000  0.247  0.087  0.100  0.260  0.082  0.786
    2  0.002  0.000  0.000  0.001  0.003  0.001  0.002  0.002  0.001  0.013
    3  0.004  0.001  0.012  0.003  0.001  0.000  0.001  0.000  0.000  0.022
    4  0.004  0.001  0.012  0.003  0.001  0.000  0.001  0.000  0.000  0.022
tot    0.019  0.002  0.026  0.007  0.251  0.087  0.104  0.262  0.084  0.843
 
band    15 # energy    3.69621392 # occ.  1.00000000
 
ion      s     py     pz     px    dxy    dyz    dz2    dxz  x2-y2    tot
    1  0.004  0.000  0.021  0.000  0.029  0.026  0.031  0.079  0.010  0.201
    2  0.010  0.002  0.000  0.007  0.001  0.002  0.049  0.006  0.000  0.077
    3  0.007  0.009  0.098  0.026  0.001  0.000  0.001  0.000  0.000  0.142
    4  0.007  0.009  0.098  0.026  0.001  0.000  0.001  0.000  0.000  0.142
tot    0.028  0.020  0.217  0.059  0.032  0.029  0.082  0.086  0.011  0.562
 
band    16 # energy    4.39402919 # occ.  1.00000000
 
ion      s     py     pz     px    dxy    dyz    dz2    dxz  x2-y2    tot
    1  0.000  0.003  0.007  0.008  0.194  0.018  0.094  0.054  0.065  0.443
    2  0.015  0.001  0.002  0.002  0.000  0.005  0.009  0.016  0.000  0.050
    3  0.013  0.020  0.014  0.060  0.001  0.000  0.000  0.000  0.000  0.109
    4  0.013  0.020  0.014  0.060  0.001  0.000  0.000  0.000  0.000  0.109
tot    0.042  0.043  0.037  0.130  0.195  0.023  0.104  0.070  0.065  0.710
 
band    17 # energy    4.44208607 # occ.  1.00000000
 
ion      s     py     pz     px    dxy    dyz    dz2    dxz  x2-y2    tot
    1  0.000  0.012  0.000  0.004  0.015  0.027  0.000  0.009  0.045  0.112
    2  0.000  0.001  0.000  0.000  0.018  0.086  0.000  0.029  0.054  0.188
    3  0.000  0.123  0.000  0.041  0.000  0.000  0.000  0.000  0.001  0.166
    4  0.000  0.123  0.000  0.041  0.000  0.000  0.000  0.000  0.001  0.166
tot    0.000  0.259  0.000  0.086  0.034  0.114  0.000  0.038  0.101  0.631
 
band    18 # energy    4.96565199 # occ.  1.00000000
 
ion      s     py     pz     px    dxy    dyz    dz2    dxz  x2-y2    tot
    1  0.005  0.002  0.001  0.007  0.017  0.034  0.156  0.103  0.006  0.330
    2  0.014  0.001  0.010  0.002  0.017  0.000  0.000  0.000  0.006  0.049
    3  0.007  0.020  0.053  0.060  0.000  0.000  0.000  0.001  0.000  0.142
    4  0.007  0.020  0.053  0.060  0.000  0.000  0.000  0.001  0.000  0.142
tot    0.033  0.043  0.116  0.129  0.034  0.035  0.157  0.106  0.011  0.664
 
band    19 # energy    5.70593871 # occ.  1.00000000
 
ion      s     py     pz     px    dxy    dyz    dz2    dxz  x2-y2    tot
    1  0.000  0.003  0.000  0.001  0.021  0.102  0.000  0.034  0.064  0.226
    2  0.000  0.013  0.000  0.004  0.014  0.024  0.000  0.008  0.043  0.106
    3  0.000  0.117  0.000  0.039  0.000  0.002  0.000  0.001  0.001  0.159
    4  0.000  0.117  0.000  0.039  0.000  0.002  0.000  0.001  0.001  0.159
tot    0.000  0.249  0.000  0.083  0.036  0.129  0.000  0.043  0.109  0.649
 
band    20 # energy    6.80653747 # occ.  0.00000000
 
ion      s     py     pz     px    dxy    dyz    dz2    dxz  x2-y2    tot
    1  0.014  0.001  0.005  0.002  0.002  0.001  0.001  0.004  0.001  0.031
    2  0.013  0.000  0.000  0.000  0.247  0.042  0.148  0.126  0.082  0.660
    3  0.007  0.000  0.004  0.000  0.004  0.000  0.002  0.001  0.001  0.020
    4  0.007  0.000  0.004  0.000  0.004  0.000  0.002  0.001  0.001  0.020
tot    0.042  0.001  0.013  0.003  0.257  0.044  0.152  0.133  0.086  0.730
 
band    21 # energy    7.25971789 # occ.  0.00000000
 
ion      s     py     pz     px    dxy    dyz    dz2    dxz  x2-y2    tot
    1  0.042  0.001  0.000  0.002  0.001  0.001  0.001  0.002  0.000  0.049
    2  0.000  0.000  0.001  0.000  0.210  0.081  0.116  0.243  0.070  0.721
    3  0.017  0.001  0.004  0.003  0.000  0.001  0.001  0.004  0.000  0.031
    4  0.017  0.001  0.004  0.003  0.000  0.001  0.001  0.004  0.000  0.031
tot    0.076  0.003  0.008  0.009  0.210  0.084  0.118  0.253  0.070  0.832
 
band    22 # energy    7.44745846 # occ.  0.00000000
 
ion      s     py     pz     px    dxy    dyz    dz2    dxz  x2-y2    tot
    1  0.000  0.000  0.000  0.000  0.002  0.012  0.000  0.004  0.007  0.026
    2  0.000  0.003  0.000  0.001  0.115  0.222  0.000  0.074  0.345  0.760
    3  0.000  0.025  0.000  0.008  0.000  0.000  0.000  0.000  0.001  0.035
    4  0.000  0.025  0.000  0.008  0.000  0.000  0.000  0.000  0.001  0.035
tot    0.000  0.053  0.000  0.018  0.118  0.234  0.000  0.078  0.354  0.856
 
band    23 # energy    7.63238582 # occ.  0.00000000
 
ion      s     py     pz     px    dxy    dyz    dz2    dxz  x2-y2    tot
    1  0.005  0.000  0.000  0.001  0.002  0.000  0.000  0.000  0.001  0.009
    2  0.001  0.001  0.000  0.003  0.017  0.071  0.462  0.212  0.006  0.773
    3  0.002  0.006  0.013  0.018  0.000  0.000  0.001  0.000  0.000  0.041
    4  0.002  0.006  0.013  0.018  0.000  0.000  0.001  0.000  0.000  0.041
tot    0.010  0.013  0.027  0.039  0.019  0.071  0.463  0.213  0.006  0.863
 
band    24 # energy    7.89667887 # occ.  0.00000000
 
ion      s     py     pz     px    dxy    dyz    dz2    dxz  x2-y2    tot
    1  0.000  0.016  0.000  0.005  0.001  0.003  0.000  0.001  0.004  0.031
    2  0.000  0.001  0.000  0.000  0.063  0.315  0.000  0.105  0.188  0.673
    3  0.000  0.040  0.000  0.013  0.000  0.004  0.000  0.001  0.001  0.060
    4  0.000  0.040  0.000  0.013  0.000  0.004  0.000  0.001  0.001  0.060
tot    0.000  0.097  0.000  0.032  0.065  0.327  0.000  0.109  0.194  0.824
 

 k-point    30 :    0.23684211 0.00000000 0.50000000     weight = 0.02500000

band     1 # energy  -44.23171328 # occ.  1.00000000
 
ion      s     py     pz     px    dxy    dyz    dz2    dxz  x2-y2    tot
    1  0.000  0.244  0.000  0.751  0.000  0.000  0.000  0.000  0.000  0.995
    2  0.000  0.000  0.000  0.000  0.000  0.000  0.000  0.000  0.000  0.000
    3  0.000  0.000  0.000  0.000  0.000  0.000  0.000  0.000  0.000  0.000
    4  0.000  0.000  0.000  0.000  0.000  0.000  0.000  0.000  0.000  0.000
tot    0.000  0.244  0.000  0.751  0.000  0.000  0.000  0.000  0.000  0.995
 
band     2 # energy  -44.23138062 # occ.  1.00000000
 
ion      s     py     pz     px    dxy    dyz    dz2    dxz  x2-y2    tot
    1  0.000  0.751  0.000  0.244  0.000  0.000  0.000  0.000  0.000  0.995
    2  0.000  0.000  0.000  0.000  0.000  0.000  0.000  0.000  0.000  0.000
    3  0.000  0.000  0.000  0.000  0.000  0.000  0.000  0.000  0.000  0.000
    4  0.000  0.000  0.000  0.000  0.000  0.000  0.000  0.000  0.000  0.000
tot    0.000  0.751  0.000  0.244  0.000  0.000  0.000  0.000  0.000  0.995
 
band     3 # energy  -44.22823605 # occ.  1.00000000
 
ion      s     py     pz     px    dxy    dyz    dz2    dxz  x2-y2    tot
    1  0.000  0.000  0.995  0.000  0.000  0.000  0.000  0.000  0.000  0.995
    2  0.000  0.000  0.000  0.000  0.000  0.000  0.000  0.000  0.000  0.000
    3  0.000  0.000  0.000  0.000  0.000  0.000  0.000  0.000  0.000  0.000
    4  0.000  0.000  0.000  0.000  0.000  0.000  0.000  0.000  0.000  0.000
tot    0.000  0.000  0.995  0.000  0.000  0.000  0.000  0.000  0.000  0.995
 
band     4 # energy  -39.85052472 # occ.  1.00000000
 
ion      s     py     pz     px    dxy    dyz    dz2    dxz  x2-y2    tot
    1  0.000  0.000  0.000  0.000  0.000  0.000  0.000  0.000  0.000  0.000
    2  0.000  0.000  0.995  0.000  0.000  0.000  0.000  0.000  0.000  0.995
    3  0.000  0.000  0.000  0.000  0.000  0.000  0.000  0.000  0.000  0.000
    4  0.000  0.000  0.000  0.000  0.000  0.000  0.000  0.000  0.000  0.000
tot    0.000  0.000  0.995  0.000  0.000  0.000  0.000  0.000  0.000  0.995
 
band     5 # energy  -39.84428554 # occ.  1.00000000
 
ion      s     py     pz     px    dxy    dyz    dz2    dxz  x2-y2    tot
    1  0.000  0.000  0.000  0.000  0.000  0.000  0.000  0.000  0.000  0.000
    2  0.000  0.244  0.000  0.751  0.000  0.000  0.000  0.000  0.000  0.995
    3  0.000  0.000  0.000  0.000  0.000  0.000  0.000  0.000  0.000  0.000
    4  0.000  0.000  0.000  0.000  0.000  0.000  0.000  0.000  0.000  0.000
tot    0.000  0.244  0.000  0.751  0.000  0.000  0.000  0.000  0.000  0.995
 
band     6 # energy  -39.84378702 # occ.  1.00000000
 
ion      s     py     pz     px    dxy    dyz    dz2    dxz  x2-y2    tot
    1  0.000  0.000  0.000  0.000  0.000  0.000  0.000  0.000  0.000  0.000
    2  0.000  0.751  0.000  0.244  0.000  0.000  0.000  0.000  0.000  0.996
    3  0.000  0.000  0.000  0.000  0.000  0.000  0.000  0.000  0.000  0.000
    4  0.000  0.000  0.000  0.000  0.000  0.000  0.000  0.000  0.000  0.000
tot    0.000  0.751  0.000  0.244  0.000  0.000  0.000  0.000  0.000  0.996
 
band     7 # energy   -5.16459601 # occ.  1.00000000
 
ion      s     py     pz     px    dxy    dyz    dz2    dxz  x2-y2    tot
    1  0.021  0.001  0.000  0.002  0.000  0.000  0.000  0.000  0.000  0.024
    2  0.000  0.000  0.003  0.000  0.001  0.000  0.000  0.001  0.000  0.006
    3  0.302  0.000  0.001  0.000  0.000  0.000  0.000  0.000  0.000  0.304
    4  0.302  0.000  0.001  0.000  0.000  0.000  0.000  0.000  0.000  0.304
tot    0.625  0.001  0.005  0.003  0.001  0.001  0.000  0.002  0.000  0.638
 
band     8 # energy   -5.13710739 # occ.  1.00000000
 
ion      s     py     pz     px    dxy    dyz    dz2    dxz  x2-y2    tot
    1  0.000  0.000  0.004  0.000  0.001  0.001  0.000  0.002  0.000  0.009
    2  0.016  0.001  0.000  0.002  0.000  0.000  0.000  0.000  0.000  0.018
    3  0.305  0.000  0.001  0.000  0.000  0.000  0.000  0.000  0.000  0.307
    4  0.305  0.000  0.001  0.000  0.000  0.000  0.000  0.000  0.000  0.307
tot    0.627  0.001  0.006  0.003  0.001  0.001  0.000  0.003  0.000  0.641
 
band     9 # energy    1.83122322 # occ.  1.00000000
 
ion      s     py     pz     px    dxy    dyz    dz2    dxz  x2-y2    tot
    1  0.001  0.001  0.001  0.002  0.147  0.022  0.000  0.066  0.049  0.288
    2  0.041  0.000  0.000  0.000  0.000  0.001  0.001  0.002  0.000  0.045
    3  0.012  0.014  0.051  0.043  0.000  0.000  0.000  0.000  0.000  0.120
    4  0.012  0.014  0.051  0.043  0.000  0.000  0.000  0.000  0.000  0.120
tot    0.065  0.030  0.103  0.089  0.147  0.023  0.001  0.068  0.049  0.573
 
band    10 # energy    1.98732400 # occ.  1.00000000
 
ion      s     py     pz     px    dxy    dyz    dz2    dxz  x2-y2    tot
    1  0.078  0.000  0.000  0.000  0.008  0.009  0.024  0.026  0.003  0.148
    2  0.001  0.001  0.000  0.002  0.019  0.004  0.000  0.011  0.006  0.044
    3  0.026  0.015  0.067  0.044  0.000  0.000  0.000  0.000  0.000  0.152
    4  0.026  0.015  0.067  0.044  0.000  0.000  0.000  0.000  0.000  0.152
tot    0.131  0.030  0.135  0.090  0.027  0.012  0.024  0.037  0.009  0.495
 
band    11 # energy    2.73063620 # occ.  1.00000000
 
ion      s     py     pz     px    dxy    dyz    dz2    dxz  x2-y2    tot
    1  0.000  0.000  0.000  0.000  0.058  0.331  0.000  0.110  0.175  0.674
    2  0.000  0.002  0.000  0.001  0.000  0.000  0.000  0.000  0.001  0.004
    3  0.000  0.043  0.000  0.014  0.000  0.001  0.000  0.000  0.000  0.059
    4  0.000  0.043  0.000  0.014  0.000  0.001  0.000  0.000  0.000  0.059
tot    0.000  0.089  0.000  0.030  0.059  0.332  0.000  0.111  0.177  0.796
 
band    12 # energy    2.75241049 # occ.  1.00000000
 
ion      s     py     pz     px    dxy    dyz    dz2    dxz  x2-y2    tot
    1  0.001  0.001  0.000  0.004  0.003  0.022  0.500  0.067  0.001  0.599
    2  0.000  0.000  0.010  0.000  0.001  0.000  0.000  0.000  0.000  0.012
    3  0.000  0.008  0.020  0.025  0.000  0.000  0.001  0.000  0.000  0.056
    4  0.000  0.008  0.020  0.025  0.000  0.000  0.001  0.000  0.000  0.056
tot    0.001  0.018  0.051  0.055  0.004  0.022  0.502  0.067  0.001  0.722
 
band    13 # energy    3.23346460 # occ.  1.00000000
 
ion      s     py     pz     px    dxy    dyz    dz2    dxz  x2-y2    tot
    1  0.000  0.002  0.000  0.001  0.130  0.207  0.000  0.069  0.390  0.798
    2  0.000  0.000  0.000  0.000  0.001  0.004  0.000  0.001  0.002  0.009
    3  0.000  0.017  0.000  0.006  0.000  0.000  0.000  0.000  0.000  0.023
    4  0.000  0.017  0.000  0.006  0.000  0.000  0.000  0.000  0.000  0.023
tot    0.000  0.035  0.000  0.012  0.131  0.211  0.000  0.070  0.393  0.852
 
band    14 # energy    3.32815858 # occ.  1.00000000
 
ion      s     py     pz     px    dxy    dyz    dz2    dxz  x2-y2    tot
    1  0.009  0.000  0.000  0.000  0.233  0.099  0.089  0.296  0.078  0.804
    2  0.002  0.000  0.000  0.001  0.003  0.001  0.001  0.002  0.001  0.010
    3  0.003  0.001  0.011  0.002  0.001  0.000  0.001  0.000  0.000  0.019
    4  0.003  0.001  0.011  0.002  0.001  0.000  0.001  0.000  0.000  0.019
tot    0.017  0.002  0.023  0.005  0.237  0.099  0.091  0.298  0.079  0.851
 
band    15 # energy    3.76764167 # occ.  1.00000000
 
ion      s     py     pz     px    dxy    dyz    dz2    dxz  x2-y2    tot
    1  0.004  0.000  0.026  0.000  0.009  0.011  0.016  0.032  0.003  0.102
    2  0.004  0.003  0.000  0.009  0.001  0.003  0.055  0.010  0.000  0.087
    3  0.003  0.013  0.103  0.038  0.001  0.000  0.001  0.000  0.000  0.160
    4  0.003  0.013  0.103  0.038  0.001  0.000  0.001  0.000  0.000  0.160
tot    0.015  0.029  0.233  0.086  0.012  0.014  0.074  0.043  0.004  0.510
 
band    16 # energy    4.19784643 # occ.  1.00000000
 
ion      s     py     pz     px    dxy    dyz    dz2    dxz  x2-y2    tot
    1  0.001  0.002  0.003  0.007  0.250  0.027  0.110  0.080  0.083  0.563
    2  0.019  0.000  0.002  0.001  0.001  0.003  0.002  0.009  0.000  0.037
    3  0.015  0.014  0.011  0.041  0.001  0.000  0.000  0.001  0.000  0.082
    4  0.015  0.014  0.011  0.041  0.001  0.000  0.000  0.001  0.000  0.082
tot    0.051  0.030  0.027  0.089  0.251  0.030  0.112  0.091  0.084  0.765
 
band    17 # energy    4.40539298 # occ.  1.00000000
 
ion      s     py     pz     px    dxy    dyz    dz2    dxz  x2-y2    tot
    1  0.000  0.013  0.000  0.004  0.019  0.026  0.000  0.009  0.057  0.128
    2  0.000  0.001  0.000  0.000  0.015  0.088  0.000  0.029  0.044  0.177
    3  0.000  0.121  0.000  0.040  0.000  0.000  0.000  0.000  0.001  0.163
    4  0.000  0.121  0.000  0.040  0.000  0.000  0.000  0.000  0.001  0.163
tot    0.000  0.257  0.000  0.086  0.034  0.115  0.000  0.038  0.102  0.632
 
band    18 # energy    4.97714240 # occ.  1.00000000
 
ion      s     py     pz     px    dxy    dyz    dz2    dxz  x2-y2    tot
    1  0.003  0.003  0.000  0.009  0.014  0.037  0.166  0.110  0.005  0.346
    2  0.015  0.000  0.011  0.001  0.009  0.000  0.000  0.001  0.003  0.040
    3  0.007  0.017  0.063  0.052  0.000  0.000  0.000  0.001  0.000  0.141
    4  0.007  0.017  0.063  0.052  0.000  0.000  0.000  0.001  0.000  0.141
tot    0.032  0.038  0.136  0.114  0.023  0.038  0.167  0.113  0.008  0.668
 
band    19 # energy    5.63430174 # occ.  1.00000000
 
ion      s     py     pz     px    dxy    dyz    dz2    dxz  x2-y2    tot
    1  0.000  0.003  0.000  0.001  0.019  0.115  0.000  0.038  0.057  0.234
    2  0.000  0.014  0.000  0.005  0.014  0.018  0.000  0.006  0.042  0.099
    3  0.000  0.115  0.000  0.038  0.000  0.002  0.000  0.001  0.001  0.157
    4  0.000  0.115  0.000  0.038  0.000  0.002  0.000  0.001  0.001  0.157
tot    0.000  0.247  0.000  0.082  0.034  0.137  0.000  0.046  0.101  0.646
 
band    20 # energy    6.76175502 # occ.  0.00000000
 
ion      s     py     pz     px    dxy    dyz    dz2    dxz  x2-y2    tot
    1  0.019  0.001  0.005  0.002  0.003  0.002  0.000  0.005  0.001  0.036
    2  0.013  0.000  0.000  0.000  0.264  0.036  0.133  0.107  0.088  0.641
    3  0.007  0.000  0.004  0.000  0.004  0.001  0.002  0.002  0.001  0.020
    4  0.007  0.000  0.004  0.000  0.004  0.001  0.002  0.002  0.001  0.020
tot    0.047  0.001  0.013  0.002  0.274  0.038  0.136  0.115  0.091  0.718
 
band    21 # energy    7.22872098 # occ.  0.00000000
 
ion      s     py     pz     px    dxy    dyz    dz2    dxz  x2-y2    tot
    1  0.042  0.000  0.001  0.001  0.001  0.000  0.000  0.001  0.000  0.047
    2  0.000  0.000  0.000  0.000  0.190  0.085  0.139  0.256  0.063  0.733
    3  0.017  0.001  0.003  0.002  0.000  0.001  0.001  0.004  0.000  0.028
    4  0.017  0.001  0.003  0.002  0.000  0.001  0.001  0.004  0.000  0.028
tot    0.076  0.002  0.006  0.005  0.191  0.088  0.140  0.264  0.064  0.835
 
band    22 # energy    7.47400836 # occ.  0.00000000
 
ion      s     py     pz     px    dxy    dyz    dz2    dxz  x2-y2    tot
    1  0.000  0.000  0.000  0.000  0.002  0.012  0.000  0.004  0.005  0.023
    2  0.000  0.003  0.000  0.001  0.133  0.179  0.000  0.060  0.400  0.776
    3  0.000  0.022  0.000  0.007  0.000  0.000  0.000  0.000  0.001  0.031
    4  0.000  0.022  0.000  0.007  0.000  0.000  0.000  0.000  0.001  0.031
tot    0.000  0.048  0.000  0.016  0.136  0.191  0.000  0.064  0.407  0.862
 
band    23 # energy    7.67044325 # occ.  0.00000000
 
ion      s     py     pz     px    dxy    dyz    dz2    dxz  x2-y2    tot
    1  0.006  0.000  0.000  0.000  0.001  0.000  0.000  0.000  0.000  0.009
    2  0.000  0.001  0.000  0.003  0.017  0.073  0.465  0.220  0.006  0.785
    3  0.003  0.005  0.014  0.015  0.000  0.000  0.000  0.001  0.000  0.038
    4  0.003  0.005  0.014  0.015  0.000  0.000  0.000  0.001  0.000  0.038
tot    0.012  0.011  0.028  0.033  0.019  0.074  0.466  0.221  0.006  0.869
 
band    24 # energy    7.85252193 # occ.  0.00000000
 
ion      s     py     pz     px    dxy    dyz    dz2    dxz  x2-y2    tot
    1  0.000  0.016  0.000  0.005  0.002  0.003  0.000  0.001  0.005  0.032
    2  0.000  0.001  0.000  0.000  0.049  0.363  0.000  0.121  0.147  0.682
    3  0.000  0.036  0.000  0.012  0.000  0.004  0.000  0.001  0.001  0.055
    4  0.000  0.036  0.000  0.012  0.000  0.004  0.000  0.001  0.001  0.055
tot    0.000  0.090  0.000  0.030  0.051  0.374  0.000  0.125  0.154  0.824
 

 k-point    31 :    0.26315789 0.00000000 0.50000000     weight = 0.02500000

band     1 # energy  -44.23179544 # occ.  1.00000000
 
ion      s     py     pz     px    dxy    dyz    dz2    dxz  x2-y2    tot
    1  0.000  0.245  0.000  0.750  0.000  0.000  0.000  0.000  0.000  0.995
    2  0.000  0.000  0.000  0.000  0.000  0.000  0.000  0.000  0.000  0.000
    3  0.000  0.000  0.000  0.000  0.000  0.000  0.000  0.000  0.000  0.000
    4  0.000  0.000  0.000  0.000  0.000  0.000  0.000  0.000  0.000  0.000
tot    0.000  0.245  0.000  0.750  0.000  0.000  0.000  0.000  0.000  0.995
 
band     2 # energy  -44.23139753 # occ.  1.00000000
 
ion      s     py     pz     px    dxy    dyz    dz2    dxz  x2-y2    tot
    1  0.000  0.750  0.000  0.245  0.000  0.000  0.000  0.000  0.000  0.995
    2  0.000  0.000  0.000  0.000  0.000  0.000  0.000  0.000  0.000  0.000
    3  0.000  0.000  0.000  0.000  0.000  0.000  0.000  0.000  0.000  0.000
    4  0.000  0.000  0.000  0.000  0.000  0.000  0.000  0.000  0.000  0.000
tot    0.000  0.750  0.000  0.245  0.000  0.000  0.000  0.000  0.000  0.995
 
band     3 # energy  -44.22822840 # occ.  1.00000000
 
ion      s     py     pz     px    dxy    dyz    dz2    dxz  x2-y2    tot
    1  0.000  0.000  0.995  0.000  0.000  0.000  0.000  0.000  0.000  0.995
    2  0.000  0.000  0.000  0.000  0.000  0.000  0.000  0.000  0.000  0.000
    3  0.000  0.000  0.000  0.000  0.000  0.000  0.000  0.000  0.000  0.000
    4  0.000  0.000  0.000  0.000  0.000  0.000  0.000  0.000  0.000  0.000
tot    0.000  0.000  0.995  0.000  0.000  0.000  0.000  0.000  0.000  0.995
 
band     4 # energy  -39.85050963 # occ.  1.00000000
 
ion      s     py     pz     px    dxy    dyz    dz2    dxz  x2-y2    tot
    1  0.000  0.000  0.000  0.000  0.000  0.000  0.000  0.000  0.000  0.000
    2  0.000  0.000  0.995  0.000  0.000  0.000  0.000  0.000  0.000  0.995
    3  0.000  0.000  0.000  0.000  0.000  0.000  0.000  0.000  0.000  0.000
    4  0.000  0.000  0.000  0.000  0.000  0.000  0.000  0.000  0.000  0.000
tot    0.000  0.000  0.995  0.000  0.000  0.000  0.000  0.000  0.000  0.995
 
band     5 # energy  -39.84440779 # occ.  1.00000000
 
ion      s     py     pz     px    dxy    dyz    dz2    dxz  x2-y2    tot
    1  0.000  0.000  0.000  0.000  0.000  0.000  0.000  0.000  0.000  0.000
    2  0.000  0.245  0.000  0.750  0.000  0.000  0.000  0.000  0.000  0.995
    3  0.000  0.000  0.000  0.000  0.000  0.000  0.000  0.000  0.000  0.000
    4  0.000  0.000  0.000  0.000  0.000  0.000  0.000  0.000  0.000  0.000
tot    0.000  0.245  0.000  0.750  0.000  0.000  0.000  0.000  0.000  0.995
 
band     6 # energy  -39.84381253 # occ.  1.00000000
 
ion      s     py     pz     px    dxy    dyz    dz2    dxz  x2-y2    tot
    1  0.000  0.000  0.000  0.000  0.000  0.000  0.000  0.000  0.000  0.000
    2  0.000  0.750  0.000  0.245  0.000  0.000  0.000  0.000  0.000  0.995
    3  0.000  0.000  0.000  0.000  0.000  0.000  0.000  0.000  0.000  0.000
    4  0.000  0.000  0.000  0.000  0.000  0.000  0.000  0.000  0.000  0.000
tot    0.000  0.750  0.000  0.245  0.000  0.000  0.000  0.000  0.000  0.996
 
band     7 # energy   -5.09933085 # occ.  1.00000000
 
ion      s     py     pz     px    dxy    dyz    dz2    dxz  x2-y2    tot
    1  0.019  0.001  0.000  0.002  0.000  0.000  0.000  0.000  0.000  0.023
    2  0.000  0.000  0.003  0.000  0.001  0.001  0.000  0.002  0.000  0.006
    3  0.306  0.000  0.001  0.001  0.000  0.000  0.000  0.000  0.000  0.307
    4  0.306  0.000  0.001  0.001  0.000  0.000  0.000  0.000  0.000  0.307
tot    0.630  0.001  0.005  0.003  0.001  0.001  0.000  0.002  0.000  0.643
 
band     8 # energy   -5.07545744 # occ.  1.00000000
 
ion      s     py     pz     px    dxy    dyz    dz2    dxz  x2-y2    tot
    1  0.000  0.000  0.004  0.000  0.001  0.001  0.000  0.003  0.000  0.009
    2  0.014  0.001  0.000  0.002  0.000  0.000  0.000  0.000  0.000  0.017
    3  0.308  0.000  0.001  0.000  0.000  0.000  0.000  0.000  0.000  0.310
    4  0.308  0.000  0.001  0.000  0.000  0.000  0.000  0.000  0.000  0.310
tot    0.631  0.001  0.005  0.003  0.001  0.001  0.000  0.003  0.000  0.646
 
band     9 # energy    1.73212979 # occ.  1.00000000
 
ion      s     py     pz     px    dxy    dyz    dz2    dxz  x2-y2    tot
    1  0.003  0.001  0.001  0.003  0.137  0.016  0.000  0.048  0.046  0.256
    2  0.041  0.000  0.000  0.000  0.000  0.001  0.000  0.003  0.000  0.046
    3  0.011  0.016  0.048  0.048  0.000  0.000  0.000  0.000  0.000  0.123
    4  0.011  0.016  0.048  0.048  0.000  0.000  0.000  0.000  0.000  0.123
tot    0.067  0.033  0.098  0.099  0.137  0.017  0.001  0.051  0.046  0.549
 
band    10 # energy    1.85441179 # occ.  1.00000000
 
ion      s     py     pz     px    dxy    dyz    dz2    dxz  x2-y2    tot
    1  0.077  0.000  0.001  0.000  0.004  0.012  0.005  0.037  0.001  0.138
    2  0.003  0.001  0.001  0.003  0.018  0.003  0.000  0.009  0.006  0.044
    3  0.023  0.018  0.053  0.055  0.000  0.000  0.000  0.000  0.000  0.150
    4  0.023  0.018  0.053  0.055  0.000  0.000  0.000  0.000  0.000  0.150
tot    0.126  0.038  0.107  0.113  0.023  0.015  0.005  0.046  0.008  0.482
 
band    11 # energy    2.72315528 # occ.  1.00000000
 
ion      s     py     pz     px    dxy    dyz    dz2    dxz  x2-y2    tot
    1  0.000  0.000  0.000  0.000  0.047  0.358  0.000  0.119  0.142  0.667
    2  0.000  0.002  0.000  0.001  0.000  0.000  0.000  0.000  0.001  0.005
    3  0.000  0.044  0.000  0.015  0.000  0.000  0.000  0.000  0.001  0.060
    4  0.000  0.044  0.000  0.015  0.000  0.000  0.000  0.000  0.001  0.060
tot    0.000  0.091  0.000  0.030  0.048  0.359  0.000  0.120  0.144  0.793
 
band    12 # energy    2.73480913 # occ.  1.00000000
 
ion      s     py     pz     px    dxy    dyz    dz2    dxz  x2-y2    tot
    1  0.000  0.002  0.000  0.005  0.000  0.018  0.513  0.055  0.000  0.593
    2  0.000  0.000  0.010  0.000  0.000  0.000  0.000  0.000  0.000  0.010
    3  0.000  0.006  0.032  0.018  0.000  0.000  0.001  0.000  0.000  0.057
    4  0.000  0.006  0.032  0.018  0.000  0.000  0.001  0.000  0.000  0.057
tot    0.001  0.014  0.074  0.041  0.001  0.018  0.515  0.055  0.000  0.718
 
band    13 # energy    3.24111899 # occ.  1.00000000
 
ion      s     py     pz     px    dxy    dyz    dz2    dxz  x2-y2    tot
    1  0.000  0.002  0.000  0.001  0.140  0.168  0.000  0.056  0.421  0.789
    2  0.000  0.000  0.000  0.000  0.001  0.005  0.000  0.002  0.002  0.010
    3  0.000  0.018  0.000  0.006  0.000  0.000  0.000  0.000  0.000  0.025
    4  0.000  0.018  0.000  0.006  0.000  0.000  0.000  0.000  0.000  0.025
tot    0.000  0.039  0.000  0.013  0.141  0.174  0.000  0.058  0.424  0.849
 
band    14 # energy    3.32203642 # occ.  1.00000000
 
ion      s     py     pz     px    dxy    dyz    dz2    dxz  x2-y2    tot
    1  0.009  0.000  0.000  0.000  0.217  0.108  0.080  0.323  0.072  0.810
    2  0.001  0.000  0.000  0.001  0.003  0.000  0.001  0.001  0.001  0.009
    3  0.003  0.001  0.011  0.002  0.001  0.000  0.001  0.000  0.000  0.017
    4  0.003  0.001  0.011  0.002  0.001  0.000  0.001  0.000  0.000  0.017
tot    0.015  0.001  0.022  0.004  0.221  0.108  0.082  0.325  0.074  0.853
 
band    15 # energy    3.76497236 # occ.  1.00000000
 
ion      s     py     pz     px    dxy    dyz    dz2    dxz  x2-y2    tot
    1  0.007  0.000  0.029  0.000  0.014  0.000  0.000  0.000  0.005  0.055
    2  0.000  0.003  0.000  0.010  0.001  0.006  0.052  0.018  0.000  0.092
    3  0.000  0.019  0.089  0.057  0.001  0.000  0.001  0.000  0.000  0.169
    4  0.000  0.019  0.089  0.057  0.001  0.000  0.001  0.000  0.000  0.169
tot    0.007  0.042  0.208  0.126  0.016  0.006  0.054  0.019  0.005  0.484
 
band    16 # energy    4.07655897 # occ.  1.00000000
 
ion      s     py     pz     px    dxy    dyz    dz2    dxz  x2-y2    tot
    1  0.000  0.002  0.000  0.005  0.273  0.030  0.149  0.090  0.091  0.641
    2  0.019  0.000  0.001  0.000  0.003  0.000  0.003  0.001  0.001  0.029
    3  0.016  0.005  0.030  0.014  0.000  0.000  0.000  0.001  0.000  0.066
    4  0.016  0.005  0.030  0.014  0.000  0.000  0.000  0.001  0.000  0.066
tot    0.051  0.011  0.061  0.034  0.277  0.031  0.152  0.092  0.092  0.802
 
band    17 # energy    4.35926024 # occ.  1.00000000
 
ion      s     py     pz     px    dxy    dyz    dz2    dxz  x2-y2    tot
    1  0.000  0.014  0.000  0.005  0.023  0.024  0.000  0.008  0.068  0.141
    2  0.000  0.001  0.000  0.000  0.012  0.089  0.000  0.030  0.035  0.167
    3  0.000  0.120  0.000  0.040  0.000  0.000  0.000  0.000  0.001  0.161
    4  0.000  0.120  0.000  0.040  0.000  0.000  0.000  0.000  0.001  0.161
tot    0.000  0.255  0.000  0.085  0.035  0.114  0.000  0.038  0.105  0.631
 
band    18 # energy    5.00118644 # occ.  1.00000000
 
ion      s     py     pz     px    dxy    dyz    dz2    dxz  x2-y2    tot
    1  0.001  0.003  0.000  0.009  0.017  0.041  0.157  0.124  0.006  0.359
    2  0.017  0.000  0.011  0.000  0.004  0.001  0.002  0.003  0.001  0.039
    3  0.008  0.015  0.069  0.044  0.000  0.000  0.000  0.001  0.000  0.139
    4  0.008  0.015  0.069  0.044  0.000  0.000  0.000  0.001  0.000  0.139
tot    0.034  0.033  0.149  0.098  0.021  0.043  0.160  0.129  0.007  0.674
 
band    19 # energy    5.57646556 # occ.  1.00000000
 
ion      s     py     pz     px    dxy    dyz    dz2    dxz  x2-y2    tot
    1  0.000  0.002  0.000  0.001  0.016  0.130  0.000  0.043  0.049  0.243
    2  0.000  0.015  0.000  0.005  0.013  0.013  0.000  0.004  0.040  0.091
    3  0.000  0.114  0.000  0.038  0.000  0.002  0.000  0.001  0.001  0.156
    4  0.000  0.114  0.000  0.038  0.000  0.002  0.000  0.001  0.001  0.156
tot    0.000  0.246  0.000  0.082  0.030  0.147  0.000  0.049  0.091  0.645
 
band    20 # energy    6.72063444 # occ.  0.00000000
 
ion      s     py     pz     px    dxy    dyz    dz2    dxz  x2-y2    tot
    1  0.022  0.000  0.005  0.001  0.003  0.002  0.000  0.005  0.001  0.039
    2  0.013  0.000  0.000  0.000  0.266  0.033  0.124  0.100  0.089  0.626
    3  0.008  0.000  0.004  0.000  0.004  0.001  0.002  0.002  0.001  0.021
    4  0.008  0.000  0.004  0.000  0.004  0.001  0.002  0.002  0.001  0.021
tot    0.050  0.001  0.013  0.002  0.277  0.036  0.128  0.108  0.092  0.707
 
band    21 # energy    7.22195610 # occ.  0.00000000
 
ion      s     py     pz     px    dxy    dyz    dz2    dxz  x2-y2    tot
    1  0.044  0.000  0.001  0.001  0.001  0.000  0.000  0.000  0.000  0.047
    2  0.000  0.000  0.000  0.000  0.183  0.082  0.163  0.246  0.061  0.735
    3  0.016  0.000  0.003  0.001  0.000  0.001  0.001  0.004  0.000  0.026
    4  0.016  0.000  0.003  0.001  0.000  0.001  0.001  0.004  0.000  0.026
tot    0.076  0.001  0.006  0.003  0.184  0.085  0.165  0.254  0.061  0.835
 
band    22 # energy    7.48775856 # occ.  0.00000000
 
ion      s     py     pz     px    dxy    dyz    dz2    dxz  x2-y2    tot
    1  0.000  0.000  0.000  0.000  0.001  0.012  0.000  0.004  0.003  0.020
    2  0.000  0.003  0.000  0.001  0.154  0.128  0.000  0.043  0.463  0.791
    3  0.000  0.020  0.000  0.007  0.000  0.000  0.000  0.000  0.001  0.027
    4  0.000  0.020  0.000  0.007  0.000  0.000  0.000  0.000  0.001  0.027
tot    0.000  0.042  0.000  0.014  0.156  0.140  0.000  0.047  0.467  0.866
 
band    23 # energy    7.70269062 # occ.  0.00000000
 
ion      s     py     pz     px    dxy    dyz    dz2    dxz  x2-y2    tot
    1  0.009  0.000  0.000  0.000  0.000  0.000  0.000  0.000  0.000  0.010
    2  0.000  0.001  0.000  0.003  0.016  0.078  0.456  0.233  0.005  0.793
    3  0.003  0.004  0.013  0.013  0.000  0.000  0.000  0.001  0.000  0.035
    4  0.003  0.004  0.013  0.013  0.000  0.000  0.000  0.001  0.000  0.035
tot    0.016  0.010  0.027  0.029  0.017  0.078  0.457  0.234  0.006  0.873
 
band    24 # energy    7.81608212 # occ.  0.00000000
 
ion      s     py     pz     px    dxy    dyz    dz2    dxz  x2-y2    tot
    1  0.000  0.017  0.000  0.006  0.002  0.002  0.000  0.001  0.005  0.032
    2  0.000  0.001  0.000  0.000  0.034  0.417  0.000  0.139  0.100  0.691
    3  0.000  0.033  0.000  0.011  0.000  0.005  0.000  0.002  0.001  0.051
    4  0.000  0.033  0.000  0.011  0.000  0.005  0.000  0.002  0.001  0.051
tot    0.000  0.083  0.000  0.028  0.036  0.428  0.000  0.143  0.108  0.825
 

 k-point    32 :    0.28947368 0.00000000 0.50000000     weight = 0.02500000

band     1 # energy  -44.23186559 # occ.  1.00000000
 
ion      s     py     pz     px    dxy    dyz    dz2    dxz  x2-y2    tot
    1  0.000  0.246  0.000  0.750  0.000  0.000  0.000  0.000  0.000  0.995
    2  0.000  0.000  0.000  0.000  0.000  0.000  0.000  0.000  0.000  0.000
    3  0.000  0.000  0.000  0.000  0.000  0.000  0.000  0.000  0.000  0.000
    4  0.000  0.000  0.000  0.000  0.000  0.000  0.000  0.000  0.000  0.000
tot    0.000  0.246  0.000  0.750  0.000  0.000  0.000  0.000  0.000  0.995
 
band     2 # energy  -44.23140410 # occ.  1.00000000
 
ion      s     py     pz     px    dxy    dyz    dz2    dxz  x2-y2    tot
    1  0.000  0.750  0.000  0.246  0.000  0.000  0.000  0.000  0.000  0.995
    2  0.000  0.000  0.000  0.000  0.000  0.000  0.000  0.000  0.000  0.000
    3  0.000  0.000  0.000  0.000  0.000  0.000  0.000  0.000  0.000  0.000
    4  0.000  0.000  0.000  0.000  0.000  0.000  0.000  0.000  0.000  0.000
tot    0.000  0.750  0.000  0.246  0.000  0.000  0.000  0.000  0.000  0.995
 
band     3 # energy  -44.22820971 # occ.  1.00000000
 
ion      s     py     pz     px    dxy    dyz    dz2    dxz  x2-y2    tot
    1  0.000  0.000  0.995  0.000  0.000  0.000  0.000  0.000  0.000  0.995
    2  0.000  0.000  0.000  0.000  0.000  0.000  0.000  0.000  0.000  0.000
    3  0.000  0.000  0.000  0.000  0.000  0.000  0.000  0.000  0.000  0.000
    4  0.000  0.000  0.000  0.000  0.000  0.000  0.000  0.000  0.000  0.000
tot    0.000  0.000  0.995  0.000  0.000  0.000  0.000  0.000  0.000  0.995
 
band     4 # energy  -39.85048157 # occ.  1.00000000
 
ion      s     py     pz     px    dxy    dyz    dz2    dxz  x2-y2    tot
    1  0.000  0.000  0.000  0.000  0.000  0.000  0.000  0.000  0.000  0.000
    2  0.000  0.000  0.995  0.000  0.000  0.000  0.000  0.000  0.000  0.995
    3  0.000  0.000  0.000  0.000  0.000  0.000  0.000  0.000  0.000  0.000
    4  0.000  0.000  0.000  0.000  0.000  0.000  0.000  0.000  0.000  0.000
tot    0.000  0.000  0.995  0.000  0.000  0.000  0.000  0.000  0.000  0.995
 
band     5 # energy  -39.84451301 # occ.  1.00000000
 
ion      s     py     pz     px    dxy    dyz    dz2    dxz  x2-y2    tot
    1  0.000  0.000  0.000  0.000  0.000  0.000  0.000  0.000  0.000  0.000
    2  0.000  0.246  0.000  0.750  0.000  0.000  0.000  0.000  0.000  0.995
    3  0.000  0.000  0.000  0.000  0.000  0.000  0.000  0.000  0.000  0.000
    4  0.000  0.000  0.000  0.000  0.000  0.000  0.000  0.000  0.000  0.000
tot    0.000  0.246  0.000  0.750  0.000  0.000  0.000  0.000  0.000  0.995
 
band     6 # energy  -39.84382383 # occ.  1.00000000
 
ion      s     py     pz     px    dxy    dyz    dz2    dxz  x2-y2    tot
    1  0.000  0.000  0.000  0.000  0.000  0.000  0.000  0.000  0.000  0.000
    2  0.000  0.750  0.000  0.246  0.000  0.000  0.000  0.000  0.000  0.996
    3  0.000  0.000  0.000  0.000  0.000  0.000  0.000  0.000  0.000  0.000
    4  0.000  0.000  0.000  0.000  0.000  0.000  0.000  0.000  0.000  0.000
tot    0.000  0.750  0.000  0.246  0.000  0.000  0.000  0.000  0.000  0.996
 
band     7 # energy   -5.03285360 # occ.  1.00000000
 
ion      s     py     pz     px    dxy    dyz    dz2    dxz  x2-y2    tot
    1  0.016  0.001  0.000  0.002  0.001  0.000  0.000  0.001  0.000  0.021
    2  0.000  0.000  0.003  0.000  0.001  0.001  0.000  0.002  0.000  0.007
    3  0.309  0.000  0.001  0.001  0.000  0.000  0.000  0.000  0.000  0.310
    4  0.309  0.000  0.001  0.001  0.000  0.000  0.000  0.000  0.000  0.310
tot    0.635  0.001  0.004  0.004  0.001  0.001  0.000  0.003  0.000  0.649
 
band     8 # energy   -5.01234840 # occ.  1.00000000
 
ion      s     py     pz     px    dxy    dyz    dz2    dxz  x2-y2    tot
    1  0.000  0.000  0.003  0.001  0.001  0.001  0.000  0.003  0.000  0.010
    2  0.012  0.001  0.000  0.002  0.000  0.000  0.000  0.001  0.000  0.016
    3  0.311  0.000  0.001  0.000  0.000  0.000  0.000  0.000  0.000  0.313
    4  0.311  0.000  0.001  0.000  0.000  0.000  0.000  0.000  0.000  0.313
tot    0.636  0.001  0.005  0.003  0.001  0.001  0.000  0.003  0.000  0.651
 
band     9 # energy    1.62776183 # occ.  1.00000000
 
ion      s     py     pz     px    dxy    dyz    dz2    dxz  x2-y2    tot
    1  0.014  0.001  0.002  0.004  0.124  0.008  0.000  0.023  0.041  0.217
    2  0.036  0.000  0.001  0.001  0.000  0.002  0.000  0.005  0.000  0.046
    3  0.012  0.018  0.045  0.053  0.000  0.000  0.000  0.000  0.000  0.127
    4  0.012  0.018  0.045  0.053  0.000  0.000  0.000  0.000  0.000  0.127
tot    0.074  0.037  0.092  0.111  0.124  0.009  0.001  0.028  0.041  0.518
 
band    10 # energy    1.70997246 # occ.  1.00000000
 
ion      s     py     pz     px    dxy    dyz    dz2    dxz  x2-y2    tot
    1  0.065  0.000  0.002  0.001  0.000  0.018  0.001  0.053  0.000  0.139
    2  0.011  0.001  0.001  0.003  0.017  0.002  0.000  0.005  0.006  0.046
    3  0.019  0.021  0.042  0.063  0.000  0.000  0.000  0.000  0.000  0.145
    4  0.019  0.021  0.042  0.063  0.000  0.000  0.000  0.000  0.000  0.145
tot    0.114  0.043  0.086  0.130  0.017  0.019  0.001  0.058  0.006  0.475
 
band    11 # energy    2.71250615 # occ.  1.00000000
 
ion      s     py     pz     px    dxy    dyz    dz2    dxz  x2-y2    tot
    1  0.000  0.000  0.000  0.000  0.038  0.381  0.000  0.127  0.114  0.660
    2  0.000  0.003  0.000  0.001  0.000  0.000  0.000  0.000  0.001  0.005
    3  0.000  0.045  0.000  0.015  0.000  0.000  0.000  0.000  0.001  0.062
    4  0.000  0.045  0.000  0.015  0.000  0.000  0.000  0.000  0.001  0.062
tot    0.000  0.094  0.000  0.031  0.038  0.382  0.000  0.127  0.115  0.788
 
band    12 # energy    2.73524680 # occ.  1.00000000
 
ion      s     py     pz     px    dxy    dyz    dz2    dxz  x2-y2    tot
    1  0.000  0.002  0.000  0.006  0.004  0.017  0.503  0.050  0.001  0.583
    2  0.000  0.000  0.010  0.000  0.000  0.000  0.000  0.000  0.000  0.011
    3  0.001  0.004  0.040  0.013  0.000  0.000  0.001  0.000  0.000  0.060
    4  0.001  0.004  0.040  0.013  0.000  0.000  0.001  0.000  0.000  0.060
tot    0.001  0.011  0.091  0.032  0.006  0.017  0.504  0.050  0.002  0.714
 
band    13 # energy    3.25608002 # occ.  1.00000000
 
ion      s     py     pz     px    dxy    dyz    dz2    dxz  x2-y2    tot
    1  0.000  0.002  0.000  0.001  0.150  0.135  0.000  0.045  0.450  0.783
    2  0.000  0.000  0.000  0.000  0.001  0.006  0.000  0.002  0.002  0.011
    3  0.000  0.020  0.000  0.007  0.000  0.000  0.000  0.000  0.000  0.027
    4  0.000  0.020  0.000  0.007  0.000  0.000  0.000  0.000  0.000  0.027
tot    0.000  0.042  0.000  0.014  0.151  0.141  0.000  0.047  0.452  0.847
 
band    14 # energy    3.31639190 # occ.  1.00000000
 
ion      s     py     pz     px    dxy    dyz    dz2    dxz  x2-y2    tot
    1  0.008  0.000  0.000  0.000  0.194  0.116  0.077  0.348  0.065  0.809
    2  0.001  0.000  0.000  0.001  0.003  0.000  0.001  0.001  0.001  0.008
    3  0.002  0.000  0.012  0.001  0.001  0.000  0.001  0.000  0.000  0.018
    4  0.002  0.000  0.012  0.001  0.001  0.000  0.001  0.000  0.000  0.018
tot    0.014  0.001  0.024  0.004  0.198  0.117  0.079  0.350  0.066  0.852
 
band    15 # energy    3.66529414 # occ.  1.00000000
 
ion      s     py     pz     px    dxy    dyz    dz2    dxz  x2-y2    tot
    1  0.009  0.000  0.024  0.001  0.099  0.003  0.024  0.008  0.033  0.199
    2  0.003  0.003  0.000  0.008  0.001  0.007  0.034  0.021  0.000  0.077
    3  0.002  0.019  0.061  0.057  0.001  0.000  0.001  0.000  0.000  0.141
    4  0.002  0.019  0.061  0.057  0.001  0.000  0.001  0.000  0.000  0.141
tot    0.016  0.041  0.146  0.123  0.101  0.010  0.059  0.029  0.034  0.558
 
band    16 # energy    4.05688228 # occ.  1.00000000
 
ion      s     py     pz     px    dxy    dyz    dz2    dxz  x2-y2    tot
    1  0.000  0.002  0.005  0.005  0.215  0.019  0.164  0.056  0.072  0.537
    2  0.011  0.001  0.001  0.002  0.005  0.000  0.017  0.001  0.002  0.040
    3  0.011  0.003  0.063  0.008  0.000  0.000  0.000  0.001  0.000  0.086
    4  0.011  0.003  0.063  0.008  0.000  0.000  0.000  0.001  0.000  0.086
tot    0.034  0.007  0.131  0.022  0.221  0.019  0.181  0.058  0.074  0.748
 
band    17 # energy    4.30464616 # occ.  1.00000000
 
ion      s     py     pz     px    dxy    dyz    dz2    dxz  x2-y2    tot
    1  0.000  0.015  0.000  0.005  0.026  0.021  0.000  0.007  0.077  0.152
    2  0.000  0.001  0.000  0.000  0.009  0.089  0.000  0.030  0.028  0.157
    3  0.000  0.119  0.000  0.040  0.000  0.000  0.000  0.000  0.001  0.160
    4  0.000  0.119  0.000  0.040  0.000  0.000  0.000  0.000  0.001  0.160
tot    0.000  0.254  0.000  0.085  0.036  0.111  0.000  0.037  0.107  0.629
 
band    18 # energy    5.04118998 # occ.  1.00000000
 
ion      s     py     pz     px    dxy    dyz    dz2    dxz  x2-y2    tot
    1  0.000  0.003  0.000  0.009  0.025  0.046  0.137  0.139  0.008  0.368
    2  0.020  0.000  0.010  0.000  0.001  0.002  0.005  0.005  0.000  0.042
    3  0.010  0.012  0.074  0.037  0.000  0.000  0.001  0.001  0.000  0.135
    4  0.010  0.012  0.074  0.037  0.000  0.000  0.001  0.001  0.000  0.135
tot    0.039  0.027  0.159  0.082  0.026  0.049  0.143  0.146  0.009  0.680
 
band    19 # energy    5.53192121 # occ.  1.00000000
 
ion      s     py     pz     px    dxy    dyz    dz2    dxz  x2-y2    tot
    1  0.000  0.002  0.000  0.001  0.014  0.145  0.000  0.048  0.042  0.252
    2  0.000  0.017  0.000  0.006  0.012  0.008  0.000  0.003  0.037  0.082
    3  0.000  0.114  0.000  0.038  0.000  0.002  0.000  0.001  0.000  0.155
    4  0.000  0.114  0.000  0.038  0.000  0.002  0.000  0.001  0.000  0.155
tot    0.000  0.246  0.000  0.082  0.026  0.158  0.000  0.053  0.079  0.644
 
band    20 # energy    6.68604347 # occ.  0.00000000
 
ion      s     py     pz     px    dxy    dyz    dz2    dxz  x2-y2    tot
    1  0.023  0.000  0.005  0.001  0.004  0.002  0.000  0.005  0.001  0.040
    2  0.012  0.000  0.000  0.001  0.257  0.035  0.122  0.104  0.086  0.616
    3  0.007  0.000  0.004  0.000  0.004  0.001  0.002  0.002  0.001  0.021
    4  0.007  0.000  0.004  0.000  0.004  0.001  0.002  0.002  0.001  0.021
tot    0.050  0.000  0.013  0.001  0.269  0.037  0.126  0.112  0.090  0.699
 
band    21 # energy    7.23414199 # occ.  0.00000000
 
ion      s     py     pz     px    dxy    dyz    dz2    dxz  x2-y2    tot
    1  0.045  0.000  0.001  0.000  0.001  0.000  0.001  0.000  0.000  0.049
    2  0.000  0.000  0.000  0.000  0.187  0.073  0.188  0.218  0.062  0.729
    3  0.015  0.001  0.003  0.002  0.000  0.001  0.001  0.004  0.000  0.027
    4  0.015  0.001  0.003  0.002  0.000  0.001  0.001  0.004  0.000  0.027
tot    0.076  0.001  0.007  0.004  0.188  0.075  0.190  0.226  0.063  0.831
 
band    22 # energy    7.48917525 # occ.  0.00000000
 
ion      s     py     pz     px    dxy    dyz    dz2    dxz  x2-y2    tot
    1  0.000  0.000  0.000  0.000  0.001  0.011  0.000  0.004  0.002  0.018
    2  0.000  0.003  0.000  0.001  0.174  0.078  0.000  0.026  0.523  0.805
    3  0.000  0.016  0.000  0.005  0.000  0.000  0.000  0.000  0.001  0.023
    4  0.000  0.016  0.000  0.005  0.000  0.000  0.000  0.000  0.001  0.023
tot    0.000  0.036  0.000  0.012  0.176  0.090  0.000  0.030  0.527  0.870
 
band    23 # energy    7.72934503 # occ.  0.00000000
 
ion      s     py     pz     px    dxy    dyz    dz2    dxz  x2-y2    tot
    1  0.013  0.000  0.000  0.000  0.000  0.000  0.000  0.000  0.000  0.014
    2  0.000  0.001  0.000  0.004  0.014  0.083  0.438  0.249  0.005  0.794
    3  0.005  0.003  0.012  0.010  0.000  0.000  0.000  0.001  0.000  0.032
    4  0.005  0.003  0.012  0.010  0.000  0.000  0.000  0.001  0.000  0.032
tot    0.023  0.008  0.025  0.025  0.014  0.084  0.438  0.251  0.005  0.873
 
band    24 # energy    7.78884895 # occ.  0.00000000
 
ion      s     py     pz     px    dxy    dyz    dz2    dxz  x2-y2    tot
    1  0.000  0.017  0.000  0.006  0.002  0.001  0.000  0.000  0.005  0.031
    2  0.000  0.000  0.000  0.000  0.019  0.470  0.000  0.157  0.055  0.701
    3  0.000  0.030  0.000  0.010  0.000  0.005  0.000  0.002  0.001  0.047
    4  0.000  0.030  0.000  0.010  0.000  0.005  0.000  0.002  0.001  0.047
tot    0.000  0.077  0.000  0.026  0.021  0.480  0.000  0.160  0.063  0.827
 

 k-point    33 :    0.31578947 0.00000000 0.50000000     weight = 0.02500000

band     1 # energy  -44.23193678 # occ.  1.00000000
 
ion      s     py     pz     px    dxy    dyz    dz2    dxz  x2-y2    tot
    1  0.000  0.246  0.000  0.749  0.000  0.000  0.000  0.000  0.000  0.995
    2  0.000  0.000  0.000  0.000  0.000  0.000  0.000  0.000  0.000  0.000
    3  0.000  0.000  0.000  0.000  0.000  0.000  0.000  0.000  0.000  0.000
    4  0.000  0.000  0.000  0.000  0.000  0.000  0.000  0.000  0.000  0.000
tot    0.000  0.246  0.000  0.749  0.000  0.000  0.000  0.000  0.000  0.995
 
band     2 # energy  -44.23143136 # occ.  1.00000000
 
ion      s     py     pz     px    dxy    dyz    dz2    dxz  x2-y2    tot
    1  0.000  0.749  0.000  0.246  0.000  0.000  0.000  0.000  0.000  0.995
    2  0.000  0.000  0.000  0.000  0.000  0.000  0.000  0.000  0.000  0.000
    3  0.000  0.000  0.000  0.000  0.000  0.000  0.000  0.000  0.000  0.000
    4  0.000  0.000  0.000  0.000  0.000  0.000  0.000  0.000  0.000  0.000
tot    0.000  0.749  0.000  0.246  0.000  0.000  0.000  0.000  0.000  0.995
 
band     3 # energy  -44.22820404 # occ.  1.00000000
 
ion      s     py     pz     px    dxy    dyz    dz2    dxz  x2-y2    tot
    1  0.000  0.000  0.995  0.000  0.000  0.000  0.000  0.000  0.000  0.995
    2  0.000  0.000  0.000  0.000  0.000  0.000  0.000  0.000  0.000  0.000
    3  0.000  0.000  0.000  0.000  0.000  0.000  0.000  0.000  0.000  0.000
    4  0.000  0.000  0.000  0.000  0.000  0.000  0.000  0.000  0.000  0.000
tot    0.000  0.000  0.995  0.000  0.000  0.000  0.000  0.000  0.000  0.995
 
band     4 # energy  -39.85047130 # occ.  1.00000000
 
ion      s     py     pz     px    dxy    dyz    dz2    dxz  x2-y2    tot
    1  0.000  0.000  0.000  0.000  0.000  0.000  0.000  0.000  0.000  0.000
    2  0.000  0.000  0.995  0.000  0.000  0.000  0.000  0.000  0.000  0.995
    3  0.000  0.000  0.000  0.000  0.000  0.000  0.000  0.000  0.000  0.000
    4  0.000  0.000  0.000  0.000  0.000  0.000  0.000  0.000  0.000  0.000
tot    0.000  0.000  0.995  0.000  0.000  0.000  0.000  0.000  0.000  0.995
 
band     5 # energy  -39.84461950 # occ.  1.00000000
 
ion      s     py     pz     px    dxy    dyz    dz2    dxz  x2-y2    tot
    1  0.000  0.000  0.000  0.000  0.000  0.000  0.000  0.000  0.000  0.000
    2  0.000  0.246  0.000  0.750  0.000  0.000  0.000  0.000  0.000  0.995
    3  0.000  0.000  0.000  0.000  0.000  0.000  0.000  0.000  0.000  0.000
    4  0.000  0.000  0.000  0.000  0.000  0.000  0.000  0.000  0.000  0.000
tot    0.000  0.246  0.000  0.750  0.000  0.000  0.000  0.000  0.000  0.995
 
band     6 # energy  -39.84386285 # occ.  1.00000000
 
ion      s     py     pz     px    dxy    dyz    dz2    dxz  x2-y2    tot
    1  0.000  0.000  0.000  0.000  0.000  0.000  0.000  0.000  0.000  0.000
    2  0.000  0.750  0.000  0.246  0.000  0.000  0.000  0.000  0.000  0.995
    3  0.000  0.000  0.000  0.000  0.000  0.000  0.000  0.000  0.000  0.000
    4  0.000  0.000  0.000  0.000  0.000  0.000  0.000  0.000  0.000  0.000
tot    0.000  0.750  0.000  0.246  0.000  0.000  0.000  0.000  0.000  0.996
 
band     7 # energy   -4.96713400 # occ.  1.00000000
 
ion      s     py     pz     px    dxy    dyz    dz2    dxz  x2-y2    tot
    1  0.014  0.001  0.000  0.002  0.001  0.001  0.000  0.002  0.000  0.020
    2  0.001  0.000  0.002  0.001  0.001  0.001  0.000  0.002  0.000  0.007
    3  0.313  0.000  0.001  0.000  0.000  0.000  0.000  0.000  0.000  0.314
    4  0.313  0.000  0.001  0.000  0.000  0.000  0.000  0.000  0.000  0.314
tot    0.640  0.001  0.003  0.004  0.002  0.001  0.000  0.003  0.001  0.655
 
band     8 # energy   -4.94927440 # occ.  1.00000000
 
ion      s     py     pz     px    dxy    dyz    dz2    dxz  x2-y2    tot
    1  0.001  0.000  0.003  0.001  0.001  0.001  0.000  0.003  0.000  0.010
    2  0.010  0.001  0.000  0.002  0.001  0.000  0.000  0.001  0.000  0.015
    3  0.315  0.000  0.001  0.000  0.000  0.000  0.000  0.000  0.000  0.316
    4  0.315  0.000  0.001  0.000  0.000  0.000  0.000  0.000  0.000  0.316
tot    0.641  0.001  0.004  0.004  0.002  0.001  0.000  0.004  0.001  0.657
 
band     9 # energy    1.50616352 # occ.  1.00000000
 
ion      s     py     pz     px    dxy    dyz    dz2    dxz  x2-y2    tot
    1  0.047  0.001  0.001  0.002  0.090  0.000  0.001  0.001  0.030  0.173
    2  0.017  0.001  0.003  0.003  0.003  0.003  0.000  0.008  0.001  0.038
    3  0.013  0.020  0.039  0.060  0.000  0.000  0.000  0.000  0.000  0.133
    4  0.013  0.020  0.039  0.060  0.000  0.000  0.000  0.000  0.000  0.133
tot    0.091  0.042  0.082  0.126  0.092  0.003  0.002  0.009  0.031  0.477
 
band    10 # energy    1.58019420 # occ.  1.00000000
 
ion      s     py     pz     px    dxy    dyz    dz2    dxz  x2-y2    tot
    1  0.033  0.001  0.004  0.003  0.016  0.021  0.000  0.063  0.005  0.147
    2  0.033  0.001  0.001  0.002  0.012  0.000  0.000  0.001  0.004  0.053
    3  0.013  0.022  0.036  0.067  0.000  0.000  0.000  0.000  0.000  0.138
    4  0.013  0.022  0.036  0.067  0.000  0.000  0.000  0.000  0.000  0.138
tot    0.091  0.046  0.077  0.138  0.029  0.021  0.000  0.064  0.010  0.475
 
band    11 # energy    2.69953442 # occ.  1.00000000
 
ion      s     py     pz     px    dxy    dyz    dz2    dxz  x2-y2    tot
    1  0.000  0.000  0.000  0.000  0.030  0.399  0.000  0.133  0.091  0.652
    2  0.000  0.003  0.000  0.001  0.000  0.000  0.000  0.000  0.001  0.005
    3  0.000  0.047  0.000  0.016  0.000  0.000  0.000  0.000  0.001  0.063
    4  0.000  0.047  0.000  0.016  0.000  0.000  0.000  0.000  0.001  0.063
tot    0.000  0.096  0.000  0.032  0.031  0.399  0.000  0.133  0.092  0.784
 
band    12 # energy    2.73930390 # occ.  1.00000000
 
ion      s     py     pz     px    dxy    dyz    dz2    dxz  x2-y2    tot
    1  0.000  0.002  0.000  0.006  0.018  0.018  0.471  0.053  0.006  0.572
    2  0.000  0.000  0.009  0.000  0.001  0.000  0.000  0.000  0.000  0.012
    3  0.001  0.004  0.046  0.011  0.001  0.000  0.001  0.000  0.000  0.064
    4  0.001  0.004  0.046  0.011  0.001  0.000  0.001  0.000  0.000  0.064
tot    0.002  0.010  0.102  0.029  0.020  0.018  0.472  0.053  0.007  0.711
 
band    13 # energy    3.27797085 # occ.  1.00000000
 
ion      s     py     pz     px    dxy    dyz    dz2    dxz  x2-y2    tot
    1  0.000  0.003  0.000  0.001  0.158  0.108  0.000  0.036  0.475  0.781
    2  0.000  0.000  0.000  0.000  0.001  0.007  0.000  0.002  0.002  0.011
    3  0.000  0.020  0.000  0.007  0.000  0.000  0.000  0.000  0.000  0.028
    4  0.000  0.020  0.000  0.007  0.000  0.000  0.000  0.000  0.000  0.028
tot    0.000  0.044  0.000  0.015  0.159  0.116  0.000  0.039  0.477  0.848
 
band    14 # energy    3.30957930 # occ.  1.00000000
 
ion      s     py     pz     px    dxy    dyz    dz2    dxz  x2-y2    tot
    1  0.006  0.000  0.001  0.000  0.155  0.125  0.086  0.376  0.052  0.801
    2  0.000  0.000  0.000  0.001  0.002  0.000  0.001  0.001  0.001  0.008
    3  0.002  0.001  0.014  0.002  0.000  0.000  0.001  0.000  0.000  0.020
    4  0.002  0.001  0.014  0.002  0.000  0.000  0.001  0.000  0.000  0.020
tot    0.011  0.002  0.028  0.005  0.158  0.126  0.089  0.377  0.053  0.848
 
band    15 # energy    3.55038009 # occ.  1.00000000
 
ion      s     py     pz     px    dxy    dyz    dz2    dxz  x2-y2    tot
    1  0.012  0.000  0.018  0.000  0.177  0.002  0.061  0.007  0.059  0.336
    2  0.006  0.002  0.000  0.006  0.001  0.007  0.022  0.020  0.000  0.065
    3  0.003  0.015  0.048  0.046  0.001  0.000  0.000  0.000  0.000  0.114
    4  0.003  0.015  0.048  0.046  0.001  0.000  0.000  0.000  0.000  0.114
tot    0.022  0.033  0.114  0.098  0.180  0.009  0.084  0.028  0.060  0.629
 
band    16 # energy    4.06165679 # occ.  1.00000000
 
ion      s     py     pz     px    dxy    dyz    dz2    dxz  x2-y2    tot
    1  0.000  0.002  0.008  0.006  0.170  0.009  0.174  0.027  0.057  0.452
    2  0.005  0.001  0.001  0.004  0.008  0.002  0.022  0.005  0.003  0.051
    3  0.007  0.004  0.079  0.011  0.000  0.000  0.000  0.000  0.000  0.102
    4  0.007  0.004  0.079  0.011  0.000  0.000  0.000  0.000  0.000  0.102
tot    0.019  0.010  0.168  0.031  0.179  0.011  0.197  0.032  0.060  0.706
 
band    17 # energy    4.24339563 # occ.  1.00000000
 
ion      s     py     pz     px    dxy    dyz    dz2    dxz  x2-y2    tot
    1  0.000  0.016  0.000  0.005  0.028  0.018  0.000  0.006  0.085  0.158
    2  0.000  0.000  0.000  0.000  0.007  0.089  0.000  0.030  0.022  0.149
    3  0.000  0.118  0.000  0.039  0.000  0.000  0.000  0.000  0.001  0.159
    4  0.000  0.118  0.000  0.039  0.000  0.000  0.000  0.000  0.001  0.159
tot    0.000  0.253  0.000  0.084  0.036  0.107  0.000  0.036  0.108  0.625
 
band    18 # energy    5.10218278 # occ.  1.00000000
 
ion      s     py     pz     px    dxy    dyz    dz2    dxz  x2-y2    tot
    1  0.000  0.003  0.001  0.008  0.036  0.050  0.112  0.150  0.012  0.372
    2  0.021  0.000  0.009  0.000  0.000  0.002  0.009  0.006  0.000  0.048
    3  0.012  0.010  0.079  0.029  0.000  0.001  0.001  0.002  0.000  0.133
    4  0.012  0.010  0.079  0.029  0.000  0.001  0.001  0.002  0.000  0.133
tot    0.044  0.022  0.168  0.067  0.037  0.053  0.122  0.159  0.012  0.685
 
band    19 # energy    5.49920152 # occ.  1.00000000
 
ion      s     py     pz     px    dxy    dyz    dz2    dxz  x2-y2    tot
    1  0.000  0.001  0.000  0.000  0.012  0.160  0.000  0.053  0.035  0.261
    2  0.000  0.018  0.000  0.006  0.011  0.005  0.000  0.002  0.032  0.073
    3  0.000  0.114  0.000  0.038  0.000  0.002  0.000  0.001  0.000  0.155
    4  0.000  0.114  0.000  0.038  0.000  0.002  0.000  0.001  0.000  0.155
tot    0.000  0.246  0.000  0.082  0.022  0.169  0.000  0.056  0.067  0.644
 
band    20 # energy    6.65825359 # occ.  0.00000006
 
ion      s     py     pz     px    dxy    dyz    dz2    dxz  x2-y2    tot
    1  0.022  0.000  0.005  0.000  0.005  0.002  0.000  0.005  0.002  0.040
    2  0.011  0.000  0.000  0.001  0.239  0.038  0.127  0.114  0.080  0.610
    3  0.007  0.000  0.005  0.000  0.004  0.001  0.002  0.002  0.001  0.021
    4  0.007  0.000  0.005  0.000  0.004  0.001  0.002  0.002  0.001  0.021
tot    0.047  0.000  0.014  0.001  0.252  0.041  0.131  0.122  0.084  0.693
 
band    21 # energy    7.26092647 # occ.  0.00000000
 
ion      s     py     pz     px    dxy    dyz    dz2    dxz  x2-y2    tot
    1  0.046  0.000  0.001  0.000  0.001  0.000  0.002  0.000  0.000  0.051
    2  0.000  0.000  0.001  0.000  0.199  0.059  0.216  0.178  0.066  0.719
    3  0.014  0.001  0.004  0.003  0.000  0.001  0.001  0.004  0.000  0.028
    4  0.014  0.001  0.004  0.003  0.000  0.001  0.001  0.004  0.000  0.028
tot    0.075  0.002  0.009  0.006  0.200  0.062  0.219  0.186  0.067  0.825
 
band    22 # energy    7.48029838 # occ.  0.00000000
 
ion      s     py     pz     px    dxy    dyz    dz2    dxz  x2-y2    tot
    1  0.000  0.001  0.000  0.000  0.000  0.010  0.000  0.003  0.001  0.016
    2  0.000  0.003  0.000  0.001  0.191  0.039  0.000  0.013  0.572  0.817
    3  0.000  0.013  0.000  0.004  0.000  0.001  0.000  0.000  0.001  0.020
    4  0.000  0.013  0.000  0.004  0.000  0.001  0.000  0.000  0.001  0.020
tot    0.000  0.030  0.000  0.010  0.191  0.050  0.000  0.017  0.574  0.872
 
band    23 # energy    7.75047430 # occ.  0.00000000
 
ion      s     py     pz     px    dxy    dyz    dz2    dxz  x2-y2    tot
    1  0.020  0.000  0.000  0.000  0.000  0.000  0.000  0.000  0.000  0.020
    2  0.002  0.002  0.000  0.005  0.011  0.089  0.407  0.267  0.004  0.785
    3  0.006  0.003  0.011  0.008  0.000  0.000  0.000  0.001  0.000  0.031
    4  0.006  0.003  0.011  0.008  0.000  0.000  0.000  0.001  0.000  0.031
tot    0.034  0.007  0.023  0.021  0.011  0.090  0.407  0.270  0.004  0.867
 
band    24 # energy    7.77059037 # occ.  0.00000000
 
ion      s     py     pz     px    dxy    dyz    dz2    dxz  x2-y2    tot
    1  0.000  0.017  0.000  0.006  0.002  0.000  0.000  0.000  0.005  0.030
    2  0.000  0.000  0.000  0.000  0.008  0.511  0.000  0.170  0.023  0.712
    3  0.000  0.027  0.000  0.009  0.000  0.005  0.000  0.002  0.001  0.043
    4  0.000  0.027  0.000  0.009  0.000  0.005  0.000  0.002  0.001  0.043
tot    0.000  0.072  0.000  0.024  0.010  0.521  0.000  0.174  0.029  0.829
 

 k-point    34 :    0.34210526 0.00000000 0.50000000     weight = 0.02500000

band     1 # energy  -44.23198977 # occ.  1.00000000
 
ion      s     py     pz     px    dxy    dyz    dz2    dxz  x2-y2    tot
    1  0.000  0.246  0.000  0.749  0.000  0.000  0.000  0.000  0.000  0.995
    2  0.000  0.000  0.000  0.000  0.000  0.000  0.000  0.000  0.000  0.000
    3  0.000  0.000  0.000  0.000  0.000  0.000  0.000  0.000  0.000  0.000
    4  0.000  0.000  0.000  0.000  0.000  0.000  0.000  0.000  0.000  0.000
tot    0.000  0.246  0.000  0.749  0.000  0.000  0.000  0.000  0.000  0.995
 
band     2 # energy  -44.23144784 # occ.  1.00000000
 
ion      s     py     pz     px    dxy    dyz    dz2    dxz  x2-y2    tot
    1  0.000  0.749  0.000  0.246  0.000  0.000  0.000  0.000  0.000  0.995
    2  0.000  0.000  0.000  0.000  0.000  0.000  0.000  0.000  0.000  0.000
    3  0.000  0.000  0.000  0.000  0.000  0.000  0.000  0.000  0.000  0.000
    4  0.000  0.000  0.000  0.000  0.000  0.000  0.000  0.000  0.000  0.000
tot    0.000  0.749  0.000  0.246  0.000  0.000  0.000  0.000  0.000  0.995
 
band     3 # energy  -44.22818734 # occ.  1.00000000
 
ion      s     py     pz     px    dxy    dyz    dz2    dxz  x2-y2    tot
    1  0.000  0.000  0.995  0.000  0.000  0.000  0.000  0.000  0.000  0.995
    2  0.000  0.000  0.000  0.000  0.000  0.000  0.000  0.000  0.000  0.000
    3  0.000  0.000  0.000  0.000  0.000  0.000  0.000  0.000  0.000  0.000
    4  0.000  0.000  0.000  0.000  0.000  0.000  0.000  0.000  0.000  0.000
tot    0.000  0.000  0.995  0.000  0.000  0.000  0.000  0.000  0.000  0.995
 
band     4 # energy  -39.85044606 # occ.  1.00000000
 
ion      s     py     pz     px    dxy    dyz    dz2    dxz  x2-y2    tot
    1  0.000  0.000  0.000  0.000  0.000  0.000  0.000  0.000  0.000  0.000
    2  0.000  0.000  0.995  0.000  0.000  0.000  0.000  0.000  0.000  0.995
    3  0.000  0.000  0.000  0.000  0.000  0.000  0.000  0.000  0.000  0.000
    4  0.000  0.000  0.000  0.000  0.000  0.000  0.000  0.000  0.000  0.000
tot    0.000  0.000  0.995  0.000  0.000  0.000  0.000  0.000  0.000  0.995
 
band     5 # energy  -39.84470404 # occ.  1.00000000
 
ion      s     py     pz     px    dxy    dyz    dz2    dxz  x2-y2    tot
    1  0.000  0.000  0.000  0.000  0.000  0.000  0.000  0.000  0.000  0.000
    2  0.000  0.246  0.000  0.749  0.000  0.000  0.000  0.000  0.000  0.995
    3  0.000  0.000  0.000  0.000  0.000  0.000  0.000  0.000  0.000  0.000
    4  0.000  0.000  0.000  0.000  0.000  0.000  0.000  0.000  0.000  0.000
tot    0.000  0.246  0.000  0.749  0.000  0.000  0.000  0.000  0.000  0.995
 
band     6 # energy  -39.84388764 # occ.  1.00000000
 
ion      s     py     pz     px    dxy    dyz    dz2    dxz  x2-y2    tot
    1  0.000  0.000  0.000  0.000  0.000  0.000  0.000  0.000  0.000  0.000
    2  0.000  0.749  0.000  0.246  0.000  0.000  0.000  0.000  0.000  0.995
    3  0.000  0.000  0.000  0.000  0.000  0.000  0.000  0.000  0.000  0.000
    4  0.000  0.000  0.000  0.000  0.000  0.000  0.000  0.000  0.000  0.000
tot    0.000  0.749  0.000  0.246  0.000  0.000  0.000  0.000  0.000  0.996
 
band     7 # energy   -4.90440115 # occ.  1.00000000
 
ion      s     py     pz     px    dxy    dyz    dz2    dxz  x2-y2    tot
    1  0.011  0.001  0.000  0.002  0.001  0.001  0.000  0.003  0.000  0.019
    2  0.001  0.001  0.002  0.002  0.001  0.000  0.000  0.001  0.000  0.007
    3  0.316  0.000  0.000  0.000  0.000  0.000  0.000  0.000  0.000  0.317
    4  0.316  0.000  0.000  0.000  0.000  0.000  0.000  0.000  0.000  0.317
tot    0.644  0.001  0.003  0.004  0.002  0.001  0.000  0.004  0.001  0.661
 
band     8 # energy   -4.88787913 # occ.  1.00000000
 
ion      s     py     pz     px    dxy    dyz    dz2    dxz  x2-y2    tot
    1  0.001  0.001  0.002  0.002  0.001  0.001  0.000  0.002  0.000  0.010
    2  0.008  0.000  0.000  0.001  0.001  0.001  0.000  0.002  0.000  0.014
    3  0.318  0.000  0.000  0.000  0.000  0.000  0.000  0.000  0.000  0.319
    4  0.318  0.000  0.000  0.000  0.000  0.000  0.000  0.000  0.000  0.319
tot    0.646  0.001  0.003  0.004  0.002  0.001  0.000  0.004  0.001  0.662
 
band     9 # energy    1.36728560 # occ.  1.00000000
 
ion      s     py     pz     px    dxy    dyz    dz2    dxz  x2-y2    tot
    1  0.069  0.000  0.000  0.001  0.056  0.001  0.003  0.003  0.019  0.152
    2  0.005  0.002  0.005  0.005  0.004  0.002  0.000  0.007  0.001  0.031
    3  0.012  0.022  0.032  0.067  0.000  0.000  0.000  0.000  0.000  0.134
    4  0.012  0.022  0.032  0.067  0.000  0.000  0.000  0.000  0.000  0.134
tot    0.099  0.046  0.069  0.139  0.060  0.003  0.003  0.010  0.020  0.450
 
band    10 # energy    1.47639259 # occ.  1.00000000
 
ion      s     py     pz     px    dxy    dyz    dz2    dxz  x2-y2    tot
    1  0.011  0.002  0.007  0.005  0.031  0.016  0.000  0.049  0.010  0.132
    2  0.048  0.000  0.000  0.001  0.008  0.000  0.000  0.000  0.003  0.061
    3  0.009  0.023  0.033  0.069  0.000  0.000  0.000  0.000  0.000  0.135
    4  0.009  0.023  0.033  0.069  0.000  0.000  0.000  0.000  0.000  0.135
tot    0.077  0.048  0.074  0.144  0.040  0.016  0.001  0.049  0.013  0.462
 
band    11 # energy    2.68536674 # occ.  1.00000000
 
ion      s     py     pz     px    dxy    dyz    dz2    dxz  x2-y2    tot
    1  0.000  0.000  0.000  0.000  0.024  0.411  0.000  0.137  0.073  0.645
    2  0.000  0.003  0.000  0.001  0.000  0.000  0.000  0.000  0.001  0.005
    3  0.000  0.048  0.000  0.016  0.000  0.000  0.000  0.000  0.000  0.065
    4  0.000  0.048  0.000  0.016  0.000  0.000  0.000  0.000  0.000  0.065
tot    0.000  0.099  0.000  0.033  0.025  0.412  0.000  0.137  0.074  0.780
 
band    12 # energy    2.73564409 # occ.  1.00000000
 
ion      s     py     pz     px    dxy    dyz    dz2    dxz  x2-y2    tot
    1  0.000  0.002  0.000  0.005  0.042  0.021  0.415  0.062  0.014  0.562
    2  0.000  0.000  0.008  0.001  0.002  0.000  0.000  0.000  0.001  0.013
    3  0.001  0.004  0.050  0.011  0.001  0.000  0.000  0.000  0.000  0.067
    4  0.001  0.004  0.050  0.011  0.001  0.000  0.000  0.000  0.000  0.067
tot    0.002  0.009  0.110  0.028  0.045  0.021  0.416  0.062  0.015  0.708
 
band    13 # energy    3.29752420 # occ.  1.00000000
 
ion      s     py     pz     px    dxy    dyz    dz2    dxz  x2-y2    tot
    1  0.003  0.000  0.001  0.000  0.094  0.132  0.123  0.397  0.031  0.784
    2  0.000  0.001  0.000  0.002  0.002  0.000  0.002  0.000  0.001  0.007
    3  0.002  0.001  0.016  0.003  0.000  0.000  0.001  0.000  0.000  0.024
    4  0.002  0.001  0.016  0.003  0.000  0.000  0.001  0.000  0.000  0.024
tot    0.007  0.003  0.034  0.008  0.097  0.133  0.127  0.398  0.032  0.839
 
band    14 # energy    3.30591334 # occ.  1.00000000
 
ion      s     py     pz     px    dxy    dyz    dz2    dxz  x2-y2    tot
    1  0.000  0.003  0.000  0.001  0.166  0.088  0.000  0.029  0.497  0.784
    2  0.000  0.000  0.000  0.000  0.000  0.007  0.000  0.002  0.001  0.012
    3  0.000  0.020  0.000  0.007  0.000  0.000  0.000  0.000  0.000  0.027
    4  0.000  0.020  0.000  0.007  0.000  0.000  0.000  0.000  0.000  0.027
tot    0.000  0.044  0.000  0.015  0.166  0.096  0.000  0.032  0.499  0.851
 
band    15 # energy    3.47100999 # occ.  1.00000000
 
ion      s     py     pz     px    dxy    dyz    dz2    dxz  x2-y2    tot
    1  0.015  0.000  0.013  0.000  0.246  0.000  0.090  0.000  0.082  0.447
    2  0.006  0.001  0.000  0.003  0.003  0.007  0.015  0.020  0.001  0.056
    3  0.003  0.011  0.042  0.034  0.001  0.000  0.000  0.000  0.000  0.091
    4  0.003  0.011  0.042  0.034  0.001  0.000  0.000  0.000  0.000  0.091
tot    0.027  0.024  0.097  0.071  0.251  0.007  0.105  0.021  0.084  0.686
 
band    16 # energy    4.05077071 # occ.  1.00000000
 
ion      s     py     pz     px    dxy    dyz    dz2    dxz  x2-y2    tot
    1  0.000  0.002  0.009  0.007  0.141  0.003  0.185  0.010  0.047  0.405
    2  0.002  0.001  0.001  0.004  0.012  0.003  0.022  0.010  0.004  0.059
    3  0.004  0.004  0.087  0.013  0.000  0.000  0.000  0.000  0.000  0.110
    4  0.004  0.004  0.087  0.013  0.000  0.000  0.000  0.000  0.000  0.110
tot    0.011  0.012  0.185  0.037  0.154  0.007  0.208  0.020  0.051  0.685
 
band    17 # energy    4.17793834 # occ.  1.00000000
 
ion      s     py     pz     px    dxy    dyz    dz2    dxz  x2-y2    tot
    1  0.000  0.017  0.000  0.006  0.029  0.015  0.000  0.005  0.088  0.160
    2  0.000  0.000  0.000  0.000  0.006  0.088  0.000  0.029  0.018  0.141
    3  0.000  0.118  0.000  0.039  0.000  0.000  0.000  0.000  0.001  0.159
    4  0.000  0.118  0.000  0.039  0.000  0.000  0.000  0.000  0.001  0.159
tot    0.000  0.254  0.000  0.085  0.036  0.103  0.000  0.034  0.107  0.618
 
band    18 # energy    5.18480929 # occ.  1.00000000
 
ion      s     py     pz     px    dxy    dyz    dz2    dxz  x2-y2    tot
    1  0.000  0.002  0.001  0.007  0.049  0.052  0.088  0.157  0.016  0.373
    2  0.020  0.001  0.008  0.002  0.000  0.002  0.013  0.006  0.000  0.052
    3  0.013  0.008  0.084  0.024  0.000  0.001  0.001  0.002  0.000  0.132
    4  0.013  0.008  0.084  0.024  0.000  0.001  0.001  0.002  0.000  0.132
tot    0.047  0.019  0.178  0.056  0.049  0.055  0.102  0.166  0.016  0.688
 
band    19 # energy    5.47628083 # occ.  1.00000000
 
ion      s     py     pz     px    dxy    dyz    dz2    dxz  x2-y2    tot
    1  0.000  0.001  0.000  0.000  0.010  0.173  0.000  0.058  0.029  0.271
    2  0.000  0.019  0.000  0.006  0.009  0.003  0.000  0.001  0.026  0.064
    3  0.000  0.114  0.000  0.038  0.000  0.002  0.000  0.001  0.000  0.155
    4  0.000  0.114  0.000  0.038  0.000  0.002  0.000  0.001  0.000  0.155
tot    0.000  0.247  0.000  0.082  0.018  0.180  0.000  0.060  0.055  0.644
 
band    20 # energy    6.63578130 # occ.  0.00000152
 
ion      s     py     pz     px    dxy    dyz    dz2    dxz  x2-y2    tot
    1  0.019  0.000  0.006  0.000  0.005  0.002  0.000  0.005  0.002  0.038
    2  0.010  0.000  0.000  0.001  0.216  0.043  0.137  0.129  0.072  0.608
    3  0.006  0.000  0.005  0.000  0.004  0.001  0.002  0.002  0.001  0.022
    4  0.006  0.000  0.005  0.000  0.004  0.001  0.002  0.002  0.001  0.022
tot    0.041  0.000  0.016  0.001  0.230  0.045  0.141  0.136  0.077  0.689
 
band    21 # energy    7.29838965 # occ.  0.00000000
 
ion      s     py     pz     px    dxy    dyz    dz2    dxz  x2-y2    tot
    1  0.046  0.000  0.001  0.000  0.001  0.000  0.003  0.000  0.000  0.051
    2  0.000  0.000  0.001  0.000  0.217  0.043  0.249  0.129  0.072  0.711
    3  0.013  0.001  0.005  0.004  0.000  0.001  0.001  0.004  0.000  0.028
    4  0.013  0.001  0.005  0.004  0.000  0.001  0.001  0.004  0.000  0.028
tot    0.072  0.003  0.012  0.008  0.218  0.045  0.253  0.136  0.073  0.819
 
band    22 # energy    7.46462267 # occ.  0.00000000
 
ion      s     py     pz     px    dxy    dyz    dz2    dxz  x2-y2    tot
    1  0.000  0.002  0.000  0.001  0.000  0.008  0.000  0.003  0.000  0.013
    2  0.000  0.002  0.000  0.001  0.201  0.015  0.000  0.005  0.604  0.828
    3  0.000  0.011  0.000  0.004  0.000  0.001  0.000  0.000  0.001  0.016
    4  0.000  0.011  0.000  0.004  0.000  0.001  0.000  0.000  0.001  0.016
tot    0.000  0.025  0.000  0.008  0.202  0.025  0.000  0.008  0.605  0.874
 
band    23 # energy    7.75943729 # occ.  0.00000000
 
ion      s     py     pz     px    dxy    dyz    dz2    dxz  x2-y2    tot
    1  0.000  0.017  0.000  0.006  0.001  0.000  0.000  0.000  0.004  0.029
    2  0.000  0.000  0.000  0.000  0.002  0.537  0.000  0.179  0.005  0.723
    3  0.000  0.025  0.000  0.008  0.000  0.005  0.000  0.002  0.001  0.040
    4  0.000  0.025  0.000  0.008  0.000  0.005  0.000  0.002  0.001  0.040
tot    0.000  0.067  0.000  0.022  0.004  0.546  0.000  0.182  0.011  0.832
 
band    24 # energy    7.76659527 # occ.  0.00000000
 
ion      s     py     pz     px    dxy    dyz    dz2    dxz  x2-y2    tot
    1  0.029  0.000  0.000  0.000  0.000  0.000  0.000  0.000  0.000  0.030
    2  0.004  0.002  0.000  0.005  0.007  0.095  0.361  0.284  0.002  0.760
    3  0.009  0.002  0.009  0.007  0.000  0.001  0.000  0.002  0.000  0.031
    4  0.009  0.002  0.009  0.007  0.000  0.001  0.000  0.002  0.000  0.031
tot    0.051  0.006  0.019  0.019  0.007  0.096  0.362  0.288  0.002  0.851
 

 k-point    35 :    0.36842105 0.00000000 0.50000000     weight = 0.02500000

band     1 # energy  -44.23205439 # occ.  1.00000000
 
ion      s     py     pz     px    dxy    dyz    dz2    dxz  x2-y2    tot
    1  0.000  0.246  0.000  0.749  0.000  0.000  0.000  0.000  0.000  0.995
    2  0.000  0.000  0.000  0.000  0.000  0.000  0.000  0.000  0.000  0.000
    3  0.000  0.000  0.000  0.000  0.000  0.000  0.000  0.000  0.000  0.000
    4  0.000  0.000  0.000  0.000  0.000  0.000  0.000  0.000  0.000  0.000
tot    0.000  0.246  0.000  0.749  0.000  0.000  0.000  0.000  0.000  0.995
 
band     2 # energy  -44.23146036 # occ.  1.00000000
 
ion      s     py     pz     px    dxy    dyz    dz2    dxz  x2-y2    tot
    1  0.000  0.749  0.000  0.246  0.000  0.000  0.000  0.000  0.000  0.995
    2  0.000  0.000  0.000  0.000  0.000  0.000  0.000  0.000  0.000  0.000
    3  0.000  0.000  0.000  0.000  0.000  0.000  0.000  0.000  0.000  0.000
    4  0.000  0.000  0.000  0.000  0.000  0.000  0.000  0.000  0.000  0.000
tot    0.000  0.749  0.000  0.246  0.000  0.000  0.000  0.000  0.000  0.995
 
band     3 # energy  -44.22817219 # occ.  1.00000000
 
ion      s     py     pz     px    dxy    dyz    dz2    dxz  x2-y2    tot
    1  0.000  0.000  0.995  0.000  0.000  0.000  0.000  0.000  0.000  0.995
    2  0.000  0.000  0.000  0.000  0.000  0.000  0.000  0.000  0.000  0.000
    3  0.000  0.000  0.000  0.000  0.000  0.000  0.000  0.000  0.000  0.000
    4  0.000  0.000  0.000  0.000  0.000  0.000  0.000  0.000  0.000  0.000
tot    0.000  0.000  0.995  0.000  0.000  0.000  0.000  0.000  0.000  0.995
 
band     4 # energy  -39.85042419 # occ.  1.00000000
 
ion      s     py     pz     px    dxy    dyz    dz2    dxz  x2-y2    tot
    1  0.000  0.000  0.000  0.000  0.000  0.000  0.000  0.000  0.000  0.000
    2  0.000  0.000  0.995  0.000  0.000  0.000  0.000  0.000  0.000  0.995
    3  0.000  0.000  0.000  0.000  0.000  0.000  0.000  0.000  0.000  0.000
    4  0.000  0.000  0.000  0.000  0.000  0.000  0.000  0.000  0.000  0.000
tot    0.000  0.000  0.995  0.000  0.000  0.000  0.000  0.000  0.000  0.995
 
band     5 # energy  -39.84479724 # occ.  1.00000000
 
ion      s     py     pz     px    dxy    dyz    dz2    dxz  x2-y2    tot
    1  0.000  0.000  0.000  0.000  0.000  0.000  0.000  0.000  0.000  0.000
    2  0.000  0.246  0.000  0.749  0.000  0.000  0.000  0.000  0.000  0.995
    3  0.000  0.000  0.000  0.000  0.000  0.000  0.000  0.000  0.000  0.000
    4  0.000  0.000  0.000  0.000  0.000  0.000  0.000  0.000  0.000  0.000
tot    0.000  0.246  0.000  0.749  0.000  0.000  0.000  0.000  0.000  0.995
 
band     6 # energy  -39.84390688 # occ.  1.00000000
 
ion      s     py     pz     px    dxy    dyz    dz2    dxz  x2-y2    tot
    1  0.000  0.000  0.000  0.000  0.000  0.000  0.000  0.000  0.000  0.000
    2  0.000  0.749  0.000  0.246  0.000  0.000  0.000  0.000  0.000  0.995
    3  0.000  0.000  0.000  0.000  0.000  0.000  0.000  0.000  0.000  0.000
    4  0.000  0.000  0.000  0.000  0.000  0.000  0.000  0.000  0.000  0.000
tot    0.000  0.749  0.000  0.246  0.000  0.000  0.000  0.000  0.000  0.996
 
band     7 # energy   -4.84690524 # occ.  1.00000000
 
ion      s     py     pz     px    dxy    dyz    dz2    dxz  x2-y2    tot
    1  0.008  0.000  0.000  0.001  0.002  0.001  0.000  0.004  0.001  0.018
    2  0.001  0.001  0.001  0.002  0.000  0.000  0.000  0.001  0.000  0.008
    3  0.320  0.000  0.000  0.000  0.000  0.000  0.000  0.000  0.000  0.321
    4  0.320  0.000  0.000  0.000  0.000  0.000  0.000  0.000  0.000  0.321
tot    0.649  0.001  0.002  0.004  0.002  0.002  0.000  0.005  0.001  0.667
 
band     8 # energy   -4.83008029 # occ.  1.00000000
 
ion      s     py     pz     px    dxy    dyz    dz2    dxz  x2-y2    tot
    1  0.002  0.001  0.002  0.003  0.001  0.001  0.000  0.002  0.000  0.010
    2  0.006  0.000  0.000  0.001  0.001  0.001  0.000  0.002  0.000  0.013
    3  0.322  0.000  0.000  0.000  0.000  0.000  0.000  0.000  0.000  0.322
    4  0.322  0.000  0.000  0.000  0.000  0.000  0.000  0.000  0.000  0.322
tot    0.651  0.002  0.003  0.005  0.002  0.001  0.000  0.004  0.001  0.668
 
band     9 # energy    1.23228932 # occ.  1.00000000
 
ion      s     py     pz     px    dxy    dyz    dz2    dxz  x2-y2    tot
    1  0.076  0.000  0.000  0.001  0.041  0.002  0.004  0.007  0.014  0.146
    2  0.002  0.002  0.006  0.005  0.004  0.002  0.000  0.005  0.001  0.026
    3  0.010  0.023  0.027  0.070  0.000  0.000  0.000  0.000  0.000  0.131
    4  0.010  0.023  0.027  0.070  0.000  0.000  0.000  0.000  0.000  0.131
tot    0.098  0.049  0.061  0.146  0.045  0.004  0.005  0.012  0.015  0.435
 
band    10 # energy    1.38690105 # occ.  1.00000000
 
ion      s     py     pz     px    dxy    dyz    dz2    dxz  x2-y2    tot
    1  0.005  0.002  0.009  0.007  0.029  0.011  0.000  0.033  0.010  0.105
    2  0.054  0.000  0.000  0.000  0.007  0.000  0.001  0.001  0.002  0.065
    3  0.006  0.024  0.031  0.073  0.000  0.000  0.000  0.000  0.000  0.135
    4  0.006  0.024  0.031  0.073  0.000  0.000  0.000  0.000  0.000  0.135
tot    0.072  0.051  0.070  0.153  0.036  0.011  0.001  0.034  0.012  0.440
 
band    11 # energy    2.67118910 # occ.  1.00000000
 
ion      s     py     pz     px    dxy    dyz    dz2    dxz  x2-y2    tot
    1  0.000  0.000  0.000  0.000  0.020  0.419  0.000  0.140  0.060  0.639
    2  0.000  0.004  0.000  0.001  0.000  0.000  0.000  0.000  0.000  0.006
    3  0.000  0.049  0.000  0.016  0.000  0.000  0.000  0.000  0.000  0.066
    4  0.000  0.049  0.000  0.016  0.000  0.000  0.000  0.000  0.000  0.066
tot    0.000  0.101  0.000  0.034  0.020  0.420  0.000  0.140  0.061  0.776
 
band    12 # energy    2.71827885 # occ.  1.00000000
 
ion      s     py     pz     px    dxy    dyz    dz2    dxz  x2-y2    tot
    1  0.000  0.001  0.001  0.004  0.077  0.025  0.343  0.076  0.026  0.555
    2  0.000  0.001  0.008  0.002  0.002  0.000  0.001  0.000  0.001  0.013
    3  0.001  0.004  0.054  0.011  0.001  0.000  0.000  0.000  0.000  0.070
    4  0.001  0.004  0.054  0.011  0.001  0.000  0.000  0.000  0.000  0.070
tot    0.002  0.009  0.115  0.028  0.080  0.025  0.344  0.076  0.027  0.708
 
band    13 # energy    3.27860756 # occ.  1.00000000
 
ion      s     py     pz     px    dxy    dyz    dz2    dxz  x2-y2    tot
    1  0.001  0.000  0.002  0.000  0.046  0.129  0.192  0.386  0.015  0.771
    2  0.000  0.001  0.001  0.003  0.000  0.000  0.003  0.000  0.000  0.008
    3  0.002  0.001  0.018  0.004  0.000  0.000  0.001  0.000  0.000  0.027
    4  0.002  0.001  0.018  0.004  0.000  0.000  0.001  0.000  0.000  0.027
tot    0.005  0.004  0.038  0.012  0.047  0.129  0.196  0.387  0.016  0.833
 
band    14 # energy    3.33862145 # occ.  1.00000000
 
ion      s     py     pz     px    dxy    dyz    dz2    dxz  x2-y2    tot
    1  0.000  0.003  0.000  0.001  0.173  0.073  0.000  0.024  0.519  0.793
    2  0.000  0.000  0.000  0.000  0.000  0.007  0.000  0.002  0.001  0.011
    3  0.000  0.019  0.000  0.006  0.000  0.000  0.000  0.000  0.000  0.026
    4  0.000  0.019  0.000  0.006  0.000  0.000  0.000  0.000  0.000  0.026
tot    0.000  0.042  0.000  0.014  0.173  0.081  0.000  0.027  0.520  0.857
 
band    15 # energy    3.44150543 # occ.  1.00000000
 
ion      s     py     pz     px    dxy    dyz    dz2    dxz  x2-y2    tot
    1  0.018  0.000  0.009  0.001  0.285  0.005  0.105  0.015  0.095  0.533
    2  0.006  0.000  0.000  0.001  0.005  0.006  0.010  0.019  0.002  0.050
    3  0.002  0.008  0.039  0.023  0.001  0.000  0.000  0.000  0.000  0.074
    4  0.002  0.008  0.039  0.023  0.001  0.000  0.000  0.000  0.000  0.074
tot    0.028  0.016  0.088  0.048  0.293  0.011  0.115  0.034  0.098  0.730
 
band    16 # energy    4.01885109 # occ.  1.00000000
 
ion      s     py     pz     px    dxy    dyz    dz2    dxz  x2-y2    tot
    1  0.000  0.003  0.010  0.008  0.122  0.001  0.189  0.002  0.041  0.375
    2  0.000  0.001  0.001  0.003  0.015  0.005  0.021  0.015  0.005  0.067
    3  0.003  0.005  0.092  0.015  0.001  0.000  0.000  0.000  0.000  0.115
    4  0.003  0.005  0.092  0.015  0.001  0.000  0.000  0.000  0.000  0.115
tot    0.006  0.014  0.195  0.041  0.138  0.006  0.210  0.017  0.046  0.673
 
band    17 # energy    4.11103174 # occ.  1.00000000
 
ion      s     py     pz     px    dxy    dyz    dz2    dxz  x2-y2    tot
    1  0.000  0.018  0.000  0.006  0.029  0.012  0.000  0.004  0.086  0.155
    2  0.000  0.000  0.000  0.000  0.005  0.087  0.000  0.029  0.014  0.135
    3  0.000  0.119  0.000  0.040  0.000  0.000  0.000  0.000  0.001  0.160
    4  0.000  0.119  0.000  0.040  0.000  0.000  0.000  0.000  0.001  0.160
tot    0.000  0.257  0.000  0.086  0.034  0.099  0.000  0.033  0.102  0.610
 
band    18 # energy    5.28401505 # occ.  1.00000000
 
ion      s     py     pz     px    dxy    dyz    dz2    dxz  x2-y2    tot
    1  0.001  0.002  0.002  0.005  0.062  0.053  0.068  0.158  0.021  0.372
    2  0.017  0.001  0.007  0.003  0.000  0.002  0.016  0.006  0.000  0.053
    3  0.015  0.006  0.089  0.019  0.000  0.000  0.001  0.001  0.000  0.133
    4  0.015  0.006  0.089  0.019  0.000  0.000  0.001  0.001  0.000  0.133
tot    0.049  0.016  0.188  0.047  0.062  0.056  0.086  0.167  0.021  0.691
 
band    19 # energy    5.46098839 # occ.  1.00000000
 
ion      s     py     pz     px    dxy    dyz    dz2    dxz  x2-y2    tot
    1  0.000  0.001  0.000  0.000  0.008  0.184  0.000  0.061  0.025  0.279
    2  0.000  0.020  0.000  0.007  0.006  0.002  0.000  0.001  0.019  0.055
    3  0.000  0.114  0.000  0.038  0.000  0.002  0.000  0.001  0.000  0.155
    4  0.000  0.114  0.000  0.038  0.000  0.002  0.000  0.001  0.000  0.155
tot    0.000  0.248  0.000  0.083  0.015  0.191  0.000  0.064  0.044  0.644
 
band    20 # energy    6.61637737 # occ.  0.00001896
 
ion      s     py     pz     px    dxy    dyz    dz2    dxz  x2-y2    tot
    1  0.016  0.000  0.006  0.000  0.006  0.001  0.000  0.004  0.002  0.035
    2  0.008  0.000  0.000  0.001  0.192  0.048  0.151  0.145  0.064  0.610
    3  0.005  0.000  0.006  0.000  0.004  0.000  0.003  0.001  0.001  0.021
    4  0.005  0.000  0.006  0.000  0.004  0.000  0.003  0.001  0.001  0.021
tot    0.034  0.001  0.019  0.002  0.206  0.051  0.157  0.152  0.069  0.688
 
band    21 # energy    7.34198915 # occ.  0.00000000
 
ion      s     py     pz     px    dxy    dyz    dz2    dxz  x2-y2    tot
    1  0.042  0.000  0.001  0.000  0.001  0.000  0.003  0.000  0.000  0.049
    2  0.001  0.000  0.002  0.000  0.237  0.025  0.291  0.076  0.079  0.713
    3  0.010  0.002  0.006  0.005  0.000  0.001  0.000  0.003  0.000  0.028
    4  0.010  0.002  0.006  0.005  0.000  0.001  0.000  0.003  0.000  0.028
tot    0.064  0.003  0.014  0.010  0.239  0.028  0.296  0.084  0.080  0.817
 
band    22 # energy    7.44596315 # occ.  0.00000000
 
ion      s     py     pz     px    dxy    dyz    dz2    dxz  x2-y2    tot
    1  0.000  0.002  0.000  0.001  0.000  0.006  0.000  0.002  0.000  0.011
    2  0.000  0.002  0.000  0.001  0.207  0.004  0.000  0.001  0.622  0.837
    3  0.000  0.008  0.000  0.003  0.000  0.001  0.000  0.000  0.001  0.013
    4  0.000  0.008  0.000  0.003  0.000  0.001  0.000  0.000  0.001  0.013
tot    0.000  0.020  0.000  0.007  0.208  0.013  0.000  0.004  0.623  0.875
 
band    23 # energy    7.75298912 # occ.  0.00000000
 
ion      s     py     pz     px    dxy    dyz    dz2    dxz  x2-y2    tot
    1  0.000  0.017  0.000  0.006  0.001  0.000  0.000  0.000  0.003  0.027
    2  0.000  0.000  0.000  0.000  0.000  0.549  0.000  0.183  0.000  0.732
    3  0.000  0.023  0.000  0.008  0.000  0.005  0.000  0.002  0.001  0.037
    4  0.000  0.023  0.000  0.008  0.000  0.005  0.000  0.002  0.001  0.037
tot    0.000  0.063  0.000  0.021  0.001  0.558  0.000  0.186  0.004  0.834
 
band    24 # energy    7.77992280 # occ.  0.00000000
 
ion      s     py     pz     px    dxy    dyz    dz2    dxz  x2-y2    tot
    1  0.043  0.000  0.000  0.000  0.001  0.000  0.001  0.000  0.000  0.045
    2  0.008  0.002  0.001  0.006  0.002  0.099  0.298  0.296  0.001  0.712
    3  0.013  0.002  0.007  0.006  0.001  0.001  0.000  0.003  0.000  0.033
    4  0.013  0.002  0.007  0.006  0.001  0.001  0.000  0.003  0.000  0.033
tot    0.077  0.006  0.014  0.019  0.004  0.101  0.298  0.302  0.001  0.822
 

 k-point    36 :    0.39473684 0.00000000 0.50000000     weight = 0.02500000

band     1 # energy  -44.23210833 # occ.  1.00000000
 
ion      s     py     pz     px    dxy    dyz    dz2    dxz  x2-y2    tot
    1  0.000  0.246  0.000  0.749  0.000  0.000  0.000  0.000  0.000  0.995
    2  0.000  0.000  0.000  0.000  0.000  0.000  0.000  0.000  0.000  0.000
    3  0.000  0.000  0.000  0.000  0.000  0.000  0.000  0.000  0.000  0.000
    4  0.000  0.000  0.000  0.000  0.000  0.000  0.000  0.000  0.000  0.000
tot    0.000  0.246  0.000  0.749  0.000  0.000  0.000  0.000  0.000  0.995
 
band     2 # energy  -44.23147357 # occ.  1.00000000
 
ion      s     py     pz     px    dxy    dyz    dz2    dxz  x2-y2    tot
    1  0.000  0.749  0.000  0.246  0.000  0.000  0.000  0.000  0.000  0.995
    2  0.000  0.000  0.000  0.000  0.000  0.000  0.000  0.000  0.000  0.000
    3  0.000  0.000  0.000  0.000  0.000  0.000  0.000  0.000  0.000  0.000
    4  0.000  0.000  0.000  0.000  0.000  0.000  0.000  0.000  0.000  0.000
tot    0.000  0.749  0.000  0.246  0.000  0.000  0.000  0.000  0.000  0.995
 
band     3 # energy  -44.22816297 # occ.  1.00000000
 
ion      s     py     pz     px    dxy    dyz    dz2    dxz  x2-y2    tot
    1  0.000  0.000  0.995  0.000  0.000  0.000  0.000  0.000  0.000  0.995
    2  0.000  0.000  0.000  0.000  0.000  0.000  0.000  0.000  0.000  0.000
    3  0.000  0.000  0.000  0.000  0.000  0.000  0.000  0.000  0.000  0.000
    4  0.000  0.000  0.000  0.000  0.000  0.000  0.000  0.000  0.000  0.000
tot    0.000  0.000  0.995  0.000  0.000  0.000  0.000  0.000  0.000  0.995
 
band     4 # energy  -39.85040967 # occ.  1.00000000
 
ion      s     py     pz     px    dxy    dyz    dz2    dxz  x2-y2    tot
    1  0.000  0.000  0.000  0.000  0.000  0.000  0.000  0.000  0.000  0.000
    2  0.000  0.000  0.995  0.000  0.000  0.000  0.000  0.000  0.000  0.995
    3  0.000  0.000  0.000  0.000  0.000  0.000  0.000  0.000  0.000  0.000
    4  0.000  0.000  0.000  0.000  0.000  0.000  0.000  0.000  0.000  0.000
tot    0.000  0.000  0.995  0.000  0.000  0.000  0.000  0.000  0.000  0.995
 
band     5 # energy  -39.84487761 # occ.  1.00000000
 
ion      s     py     pz     px    dxy    dyz    dz2    dxz  x2-y2    tot
    1  0.000  0.000  0.000  0.000  0.000  0.000  0.000  0.000  0.000  0.000
    2  0.000  0.246  0.000  0.749  0.000  0.000  0.000  0.000  0.000  0.995
    3  0.000  0.000  0.000  0.000  0.000  0.000  0.000  0.000  0.000  0.000
    4  0.000  0.000  0.000  0.000  0.000  0.000  0.000  0.000  0.000  0.000
tot    0.000  0.246  0.000  0.749  0.000  0.000  0.000  0.000  0.000  0.995
 
band     6 # energy  -39.84392642 # occ.  1.00000000
 
ion      s     py     pz     px    dxy    dyz    dz2    dxz  x2-y2    tot
    1  0.000  0.000  0.000  0.000  0.000  0.000  0.000  0.000  0.000  0.000
    2  0.000  0.749  0.000  0.246  0.000  0.000  0.000  0.000  0.000  0.995
    3  0.000  0.000  0.000  0.000  0.000  0.000  0.000  0.000  0.000  0.000
    4  0.000  0.000  0.000  0.000  0.000  0.000  0.000  0.000  0.000  0.000
tot    0.000  0.749  0.000  0.246  0.000  0.000  0.000  0.000  0.000  0.996
 
band     7 # energy   -4.79665286 # occ.  1.00000000
 
ion      s     py     pz     px    dxy    dyz    dz2    dxz  x2-y2    tot
    1  0.006  0.000  0.000  0.001  0.003  0.002  0.000  0.005  0.001  0.018
    2  0.001  0.001  0.001  0.003  0.000  0.000  0.000  0.001  0.000  0.007
    3  0.323  0.000  0.000  0.000  0.000  0.000  0.000  0.000  0.000  0.324
    4  0.323  0.000  0.000  0.000  0.000  0.000  0.000  0.000  0.000  0.324
tot    0.654  0.001  0.002  0.004  0.003  0.002  0.000  0.006  0.001  0.673
 
band     8 # energy   -4.77819238 # occ.  1.00000000
 
ion      s     py     pz     px    dxy    dyz    dz2    dxz  x2-y2    tot
    1  0.002  0.001  0.001  0.004  0.000  0.000  0.000  0.001  0.000  0.010
    2  0.005  0.000  0.000  0.001  0.002  0.001  0.000  0.003  0.001  0.012
    3  0.325  0.000  0.000  0.000  0.000  0.000  0.000  0.000  0.000  0.325
    4  0.325  0.000  0.000  0.000  0.000  0.000  0.000  0.000  0.000  0.325
tot    0.656  0.002  0.002  0.005  0.002  0.001  0.000  0.004  0.001  0.673
 
band     9 # energy    1.11273963 # occ.  1.00000000
 
ion      s     py     pz     px    dxy    dyz    dz2    dxz  x2-y2    tot
    1  0.080  0.000  0.000  0.000  0.034  0.003  0.006  0.009  0.011  0.144
    2  0.001  0.002  0.007  0.006  0.003  0.001  0.000  0.003  0.001  0.023
    3  0.007  0.024  0.024  0.072  0.000  0.000  0.000  0.000  0.000  0.128
    4  0.007  0.024  0.024  0.072  0.000  0.000  0.000  0.000  0.000  0.128
tot    0.094  0.050  0.056  0.151  0.037  0.004  0.006  0.013  0.012  0.423
 
band    10 # energy    1.30867816 # occ.  1.00000000
 
ion      s     py     pz     px    dxy    dyz    dz2    dxz  x2-y2    tot
    1  0.002  0.003  0.010  0.008  0.020  0.007  0.000  0.021  0.007  0.079
    2  0.058  0.000  0.000  0.000  0.006  0.000  0.001  0.001  0.002  0.069
    3  0.004  0.026  0.028  0.077  0.000  0.000  0.000  0.000  0.000  0.135
    4  0.004  0.026  0.028  0.077  0.000  0.000  0.000  0.000  0.000  0.135
tot    0.069  0.054  0.067  0.162  0.027  0.007  0.001  0.022  0.009  0.419
 
band    11 # energy    2.65808425 # occ.  1.00000000
 
ion      s     py     pz     px    dxy    dyz    dz2    dxz  x2-y2    tot
    1  0.000  0.000  0.000  0.000  0.017  0.425  0.000  0.142  0.050  0.633
    2  0.000  0.004  0.000  0.001  0.000  0.000  0.000  0.000  0.000  0.006
    3  0.000  0.049  0.000  0.016  0.000  0.000  0.000  0.000  0.000  0.067
    4  0.000  0.049  0.000  0.016  0.000  0.000  0.000  0.000  0.000  0.067
tot    0.000  0.103  0.000  0.034  0.017  0.425  0.000  0.142  0.051  0.772
 
band    12 # energy    2.68924345 # occ.  1.00000000
 
ion      s     py     pz     px    dxy    dyz    dz2    dxz  x2-y2    tot
    1  0.001  0.001  0.001  0.003  0.115  0.031  0.273  0.092  0.038  0.554
    2  0.000  0.001  0.007  0.003  0.001  0.000  0.001  0.000  0.000  0.013
    3  0.001  0.003  0.056  0.010  0.001  0.000  0.000  0.000  0.000  0.072
    4  0.001  0.003  0.056  0.010  0.001  0.000  0.000  0.000  0.000  0.072
tot    0.003  0.009  0.119  0.027  0.117  0.031  0.274  0.092  0.039  0.711
 
band    13 # energy    3.26162886 # occ.  1.00000000
 
ion      s     py     pz     px    dxy    dyz    dz2    dxz  x2-y2    tot
    1  0.000  0.000  0.002  0.000  0.031  0.122  0.253  0.365  0.010  0.784
    2  0.000  0.001  0.001  0.002  0.000  0.000  0.002  0.001  0.000  0.007
    3  0.002  0.001  0.016  0.004  0.000  0.000  0.001  0.000  0.000  0.024
    4  0.002  0.001  0.016  0.004  0.000  0.000  0.001  0.000  0.000  0.024
tot    0.004  0.003  0.035  0.010  0.032  0.122  0.257  0.366  0.011  0.840
 
band    14 # energy    3.37435819 # occ.  1.00000000
 
ion      s     py     pz     px    dxy    dyz    dz2    dxz  x2-y2    tot
    1  0.000  0.003  0.000  0.001  0.181  0.063  0.000  0.021  0.542  0.810
    2  0.000  0.000  0.000  0.000  0.000  0.007  0.000  0.002  0.001  0.011
    3  0.000  0.017  0.000  0.006  0.000  0.000  0.000  0.000  0.000  0.023
    4  0.000  0.017  0.000  0.006  0.000  0.000  0.000  0.000  0.000  0.023
tot    0.000  0.037  0.000  0.012  0.181  0.071  0.000  0.024  0.543  0.867
 
band    15 # energy    3.45102808 # occ.  1.00000000
 
ion      s     py     pz     px    dxy    dyz    dz2    dxz  x2-y2    tot
    1  0.018  0.000  0.007  0.001  0.283  0.011  0.131  0.033  0.094  0.579
    2  0.005  0.000  0.000  0.000  0.007  0.006  0.007  0.018  0.002  0.046
    3  0.002  0.006  0.039  0.017  0.001  0.000  0.000  0.000  0.000  0.065
    4  0.002  0.006  0.039  0.017  0.001  0.000  0.000  0.000  0.000  0.065
tot    0.026  0.012  0.086  0.035  0.292  0.017  0.138  0.052  0.097  0.754
 
band    16 # energy    3.96986763 # occ.  1.00000000
 
ion      s     py     pz     px    dxy    dyz    dz2    dxz  x2-y2    tot
    1  0.001  0.003  0.010  0.009  0.107  0.000  0.185  0.000  0.036  0.349
    2  0.000  0.001  0.001  0.002  0.019  0.007  0.019  0.020  0.006  0.076
    3  0.002  0.005  0.096  0.015  0.001  0.000  0.000  0.000  0.000  0.119
    4  0.002  0.005  0.096  0.015  0.001  0.000  0.000  0.000  0.000  0.119
tot    0.004  0.014  0.202  0.042  0.127  0.007  0.204  0.020  0.042  0.663
 
band    17 # energy    4.04567582 # occ.  1.00000000
 
ion      s     py     pz     px    dxy    dyz    dz2    dxz  x2-y2    tot
    1  0.000  0.019  0.000  0.006  0.026  0.009  0.000  0.003  0.078  0.141
    2  0.000  0.000  0.000  0.000  0.004  0.086  0.000  0.029  0.012  0.131
    3  0.000  0.121  0.000  0.040  0.000  0.000  0.000  0.000  0.000  0.162
    4  0.000  0.121  0.000  0.040  0.000  0.000  0.000  0.000  0.000  0.162
tot    0.000  0.262  0.000  0.087  0.030  0.095  0.000  0.032  0.091  0.597
 
band    18 # energy    5.39096372 # occ.  1.00000000
 
ion      s     py     pz     px    dxy    dyz    dz2    dxz  x2-y2    tot
    1  0.003  0.001  0.002  0.004  0.074  0.052  0.055  0.157  0.025  0.372
    2  0.014  0.002  0.007  0.005  0.000  0.002  0.017  0.005  0.000  0.051
    3  0.016  0.005  0.095  0.016  0.000  0.000  0.001  0.001  0.000  0.136
    4  0.016  0.005  0.095  0.016  0.000  0.000  0.001  0.001  0.000  0.136
tot    0.048  0.014  0.199  0.042  0.074  0.055  0.072  0.165  0.025  0.694
 
band    19 # energy    5.45130195 # occ.  1.00000000
 
ion      s     py     pz     px    dxy    dyz    dz2    dxz  x2-y2    tot
    1  0.000  0.000  0.000  0.000  0.007  0.194  0.000  0.065  0.021  0.287
    2  0.000  0.021  0.000  0.007  0.004  0.001  0.000  0.000  0.013  0.047
    3  0.000  0.114  0.000  0.038  0.000  0.002  0.000  0.001  0.000  0.155
    4  0.000  0.114  0.000  0.038  0.000  0.002  0.000  0.001  0.000  0.155
tot    0.000  0.250  0.000  0.083  0.011  0.199  0.000  0.066  0.034  0.645
 
band    20 # energy    6.59787934 # occ.  0.00016119
 
ion      s     py     pz     px    dxy    dyz    dz2    dxz  x2-y2    tot
    1  0.011  0.000  0.007  0.000  0.005  0.001  0.000  0.004  0.002  0.032
    2  0.005  0.000  0.000  0.001  0.169  0.053  0.170  0.160  0.056  0.616
    3  0.004  0.000  0.007  0.000  0.004  0.000  0.003  0.001  0.001  0.021
    4  0.004  0.000  0.007  0.000  0.004  0.000  0.003  0.001  0.001  0.021
tot    0.025  0.001  0.020  0.002  0.182  0.056  0.176  0.167  0.061  0.689
 
band    21 # energy    7.38542403 # occ.  0.00000000
 
ion      s     py     pz     px    dxy    dyz    dz2    dxz  x2-y2    tot
    1  0.034  0.000  0.001  0.000  0.001  0.000  0.003  0.001  0.000  0.041
    2  0.004  0.000  0.002  0.000  0.257  0.010  0.345  0.030  0.086  0.733
    3  0.007  0.002  0.006  0.005  0.000  0.001  0.000  0.003  0.000  0.025
    4  0.007  0.002  0.006  0.005  0.000  0.001  0.000  0.003  0.000  0.025
tot    0.052  0.003  0.016  0.010  0.258  0.012  0.349  0.037  0.086  0.824
 
band    22 # energy    7.42745803 # occ.  0.00000000
 
ion      s     py     pz     px    dxy    dyz    dz2    dxz  x2-y2    tot
    1  0.000  0.003  0.000  0.001  0.000  0.004  0.000  0.001  0.000  0.009
    2  0.000  0.001  0.000  0.000  0.211  0.000  0.000  0.000  0.633  0.845
    3  0.000  0.006  0.000  0.002  0.000  0.001  0.000  0.000  0.001  0.010
    4  0.000  0.006  0.000  0.002  0.000  0.001  0.000  0.000  0.001  0.010
tot    0.000  0.015  0.000  0.005  0.211  0.007  0.000  0.002  0.634  0.876
 
band    23 # energy    7.74930286 # occ.  0.00000000
 
ion      s     py     pz     px    dxy    dyz    dz2    dxz  x2-y2    tot
    1  0.000  0.017  0.000  0.006  0.001  0.000  0.000  0.000  0.002  0.026
    2  0.000  0.000  0.000  0.000  0.000  0.554  0.000  0.185  0.001  0.740
    3  0.000  0.021  0.000  0.007  0.000  0.005  0.000  0.002  0.000  0.035
    4  0.000  0.021  0.000  0.007  0.000  0.005  0.000  0.002  0.000  0.035
tot    0.000  0.060  0.000  0.020  0.001  0.563  0.000  0.188  0.004  0.836
 
band    24 # energy    7.79618832 # occ.  0.00000000
 
ion      s     py     pz     px    dxy    dyz    dz2    dxz  x2-y2    tot
    1  0.063  0.000  0.000  0.001  0.001  0.000  0.001  0.000  0.000  0.066
    2  0.012  0.002  0.001  0.007  0.000  0.098  0.217  0.295  0.000  0.632
    3  0.017  0.002  0.004  0.007  0.001  0.001  0.000  0.004  0.000  0.038
    4  0.017  0.002  0.004  0.007  0.001  0.001  0.000  0.004  0.000  0.038
tot    0.110  0.007  0.010  0.021  0.003  0.101  0.218  0.304  0.001  0.775
 

 k-point    37 :    0.42105263 0.00000000 0.50000000     weight = 0.02500000

band     1 # energy  -44.23215759 # occ.  1.00000000
 
ion      s     py     pz     px    dxy    dyz    dz2    dxz  x2-y2    tot
    1  0.000  0.247  0.000  0.749  0.000  0.000  0.000  0.000  0.000  0.995
    2  0.000  0.000  0.000  0.000  0.000  0.000  0.000  0.000  0.000  0.000
    3  0.000  0.000  0.000  0.000  0.000  0.000  0.000  0.000  0.000  0.000
    4  0.000  0.000  0.000  0.000  0.000  0.000  0.000  0.000  0.000  0.000
tot    0.000  0.247  0.000  0.749  0.000  0.000  0.000  0.000  0.000  0.995
 
band     2 # energy  -44.23148653 # occ.  1.00000000
 
ion      s     py     pz     px    dxy    dyz    dz2    dxz  x2-y2    tot
    1  0.000  0.749  0.000  0.247  0.000  0.000  0.000  0.000  0.000  0.995
    2  0.000  0.000  0.000  0.000  0.000  0.000  0.000  0.000  0.000  0.000
    3  0.000  0.000  0.000  0.000  0.000  0.000  0.000  0.000  0.000  0.000
    4  0.000  0.000  0.000  0.000  0.000  0.000  0.000  0.000  0.000  0.000
tot    0.000  0.749  0.000  0.247  0.000  0.000  0.000  0.000  0.000  0.995
 
band     3 # energy  -44.22816804 # occ.  1.00000000
 
ion      s     py     pz     px    dxy    dyz    dz2    dxz  x2-y2    tot
    1  0.000  0.000  0.995  0.000  0.000  0.000  0.000  0.000  0.000  0.995
    2  0.000  0.000  0.000  0.000  0.000  0.000  0.000  0.000  0.000  0.000
    3  0.000  0.000  0.000  0.000  0.000  0.000  0.000  0.000  0.000  0.000
    4  0.000  0.000  0.000  0.000  0.000  0.000  0.000  0.000  0.000  0.000
tot    0.000  0.000  0.995  0.000  0.000  0.000  0.000  0.000  0.000  0.995
 
band     4 # energy  -39.85041341 # occ.  1.00000000
 
ion      s     py     pz     px    dxy    dyz    dz2    dxz  x2-y2    tot
    1  0.000  0.000  0.000  0.000  0.000  0.000  0.000  0.000  0.000  0.000
    2  0.000  0.000  0.995  0.000  0.000  0.000  0.000  0.000  0.000  0.995
    3  0.000  0.000  0.000  0.000  0.000  0.000  0.000  0.000  0.000  0.000
    4  0.000  0.000  0.000  0.000  0.000  0.000  0.000  0.000  0.000  0.000
tot    0.000  0.000  0.995  0.000  0.000  0.000  0.000  0.000  0.000  0.995
 
band     5 # energy  -39.84495019 # occ.  1.00000000
 
ion      s     py     pz     px    dxy    dyz    dz2    dxz  x2-y2    tot
    1  0.000  0.000  0.000  0.000  0.000  0.000  0.000  0.000  0.000  0.000
    2  0.000  0.247  0.000  0.749  0.000  0.000  0.000  0.000  0.000  0.995
    3  0.000  0.000  0.000  0.000  0.000  0.000  0.000  0.000  0.000  0.000
    4  0.000  0.000  0.000  0.000  0.000  0.000  0.000  0.000  0.000  0.000
tot    0.000  0.247  0.000  0.749  0.000  0.000  0.000  0.000  0.000  0.995
 
band     6 # energy  -39.84394528 # occ.  1.00000000
 
ion      s     py     pz     px    dxy    dyz    dz2    dxz  x2-y2    tot
    1  0.000  0.000  0.000  0.000  0.000  0.000  0.000  0.000  0.000  0.000
    2  0.000  0.749  0.000  0.247  0.000  0.000  0.000  0.000  0.000  0.995
    3  0.000  0.000  0.000  0.000  0.000  0.000  0.000  0.000  0.000  0.000
    4  0.000  0.000  0.000  0.000  0.000  0.000  0.000  0.000  0.000  0.000
tot    0.000  0.749  0.000  0.247  0.000  0.000  0.000  0.000  0.000  0.996
 
band     7 # energy   -4.75538442 # occ.  1.00000000
 
ion      s     py     pz     px    dxy    dyz    dz2    dxz  x2-y2    tot
    1  0.005  0.000  0.000  0.000  0.003  0.002  0.000  0.006  0.001  0.018
    2  0.001  0.001  0.001  0.004  0.000  0.000  0.000  0.000  0.000  0.007
    3  0.326  0.000  0.000  0.000  0.000  0.000  0.000  0.000  0.000  0.326
    4  0.326  0.000  0.000  0.000  0.000  0.000  0.000  0.000  0.000  0.326
tot    0.657  0.001  0.001  0.004  0.003  0.002  0.000  0.007  0.001  0.678
 
band     8 # energy   -4.73469502 # occ.  1.00000000
 
ion      s     py     pz     px    dxy    dyz    dz2    dxz  x2-y2    tot
    1  0.001  0.001  0.001  0.004  0.000  0.000  0.000  0.000  0.000  0.009
    2  0.004  0.000  0.000  0.000  0.002  0.001  0.000  0.004  0.001  0.012
    3  0.328  0.000  0.000  0.000  0.000  0.000  0.000  0.000  0.000  0.328
    4  0.328  0.000  0.000  0.000  0.000  0.000  0.000  0.000  0.000  0.328
tot    0.661  0.002  0.002  0.005  0.002  0.001  0.000  0.004  0.001  0.677
 
band     9 # energy    1.01451222 # occ.  1.00000000
 
ion      s     py     pz     px    dxy    dyz    dz2    dxz  x2-y2    tot
    1  0.082  0.000  0.000  0.000  0.030  0.003  0.007  0.010  0.010  0.143
    2  0.000  0.002  0.008  0.006  0.002  0.001  0.000  0.002  0.001  0.021
    3  0.004  0.025  0.022  0.074  0.000  0.000  0.000  0.000  0.000  0.125
    4  0.004  0.025  0.022  0.074  0.000  0.000  0.000  0.000  0.000  0.125
tot    0.091  0.051  0.052  0.154  0.032  0.004  0.007  0.013  0.011  0.414
 
band    10 # energy    1.24358817 # occ.  1.00000000
 
ion      s     py     pz     px    dxy    dyz    dz2    dxz  x2-y2    tot
    1  0.001  0.003  0.012  0.009  0.012  0.004  0.000  0.012  0.004  0.057
    2  0.061  0.000  0.000  0.000  0.006  0.000  0.001  0.001  0.002  0.072
    3  0.003  0.027  0.026  0.080  0.000  0.000  0.000  0.000  0.000  0.136
    4  0.003  0.027  0.026  0.080  0.000  0.000  0.000  0.000  0.000  0.136
tot    0.067  0.056  0.064  0.169  0.018  0.004  0.001  0.013  0.006  0.400
 
band    11 # energy    2.64696202 # occ.  1.00000000
 
ion      s     py     pz     px    dxy    dyz    dz2    dxz  x2-y2    tot
    1  0.000  0.000  0.000  0.000  0.014  0.428  0.000  0.143  0.043  0.629
    2  0.000  0.004  0.000  0.001  0.000  0.000  0.000  0.000  0.000  0.006
    3  0.000  0.050  0.000  0.017  0.000  0.000  0.000  0.000  0.000  0.068
    4  0.000  0.050  0.000  0.017  0.000  0.000  0.000  0.000  0.000  0.068
tot    0.000  0.104  0.000  0.035  0.015  0.428  0.000  0.143  0.044  0.769
 
band    12 # energy    2.65640858 # occ.  1.00000000
 
ion      s     py     pz     px    dxy    dyz    dz2    dxz  x2-y2    tot
    1  0.002  0.001  0.001  0.002  0.146  0.035  0.219  0.106  0.049  0.560
    2  0.000  0.001  0.006  0.003  0.001  0.000  0.001  0.000  0.000  0.012
    3  0.001  0.003  0.058  0.010  0.001  0.000  0.000  0.000  0.000  0.072
    4  0.001  0.003  0.058  0.010  0.001  0.000  0.000  0.000  0.000  0.072
tot    0.003  0.008  0.122  0.024  0.148  0.035  0.220  0.106  0.049  0.716
 
band    13 # energy    3.25189395 # occ.  1.00000000
 
ion      s     py     pz     px    dxy    dyz    dz2    dxz  x2-y2    tot
    1  0.000  0.000  0.001  0.000  0.034  0.119  0.287  0.356  0.011  0.807
    2  0.000  0.001  0.001  0.002  0.000  0.000  0.001  0.001  0.000  0.006
    3  0.001  0.001  0.014  0.002  0.000  0.000  0.001  0.000  0.000  0.019
    4  0.001  0.001  0.014  0.002  0.000  0.000  0.001  0.000  0.000  0.019
tot    0.003  0.002  0.029  0.006  0.034  0.119  0.289  0.357  0.011  0.852
 
band    14 # energy    3.41066654 # occ.  1.00000000
 
ion      s     py     pz     px    dxy    dyz    dz2    dxz  x2-y2    tot
    1  0.000  0.002  0.000  0.001  0.190  0.057  0.000  0.019  0.569  0.837
    2  0.000  0.000  0.000  0.000  0.000  0.006  0.000  0.002  0.001  0.009
    3  0.000  0.013  0.000  0.004  0.000  0.000  0.000  0.000  0.000  0.018
    4  0.000  0.013  0.000  0.004  0.000  0.000  0.000  0.000  0.000  0.018
tot    0.000  0.029  0.000  0.010  0.190  0.063  0.000  0.021  0.569  0.882
 
band    15 # energy    3.48425680 # occ.  1.00000000
 
ion      s     py     pz     px    dxy    dyz    dz2    dxz  x2-y2    tot
    1  0.017  0.001  0.006  0.002  0.269  0.013  0.175  0.039  0.090  0.610
    2  0.004  0.000  0.000  0.000  0.008  0.005  0.006  0.016  0.003  0.042
    3  0.002  0.004  0.039  0.013  0.001  0.000  0.000  0.000  0.000  0.059
    4  0.002  0.004  0.039  0.013  0.001  0.000  0.000  0.000  0.000  0.059
tot    0.023  0.009  0.084  0.028  0.279  0.018  0.181  0.055  0.093  0.771
 
band    16 # energy    3.90973044 # occ.  1.00000000
 
ion      s     py     pz     px    dxy    dyz    dz2    dxz  x2-y2    tot
    1  0.001  0.003  0.010  0.010  0.093  0.000  0.169  0.001  0.031  0.318
    2  0.001  0.001  0.001  0.002  0.023  0.008  0.017  0.025  0.008  0.085
    3  0.001  0.005  0.100  0.016  0.001  0.000  0.000  0.000  0.000  0.123
    4  0.001  0.005  0.100  0.016  0.001  0.000  0.000  0.000  0.000  0.123
tot    0.004  0.014  0.212  0.042  0.117  0.009  0.187  0.026  0.039  0.649
 
band    17 # energy    3.98534492 # occ.  1.00000000
 
ion      s     py     pz     px    dxy    dyz    dz2    dxz  x2-y2    tot
    1  0.000  0.020  0.000  0.007  0.021  0.006  0.000  0.002  0.062  0.117
    2  0.000  0.000  0.000  0.000  0.004  0.086  0.000  0.029  0.011  0.130
    3  0.000  0.125  0.000  0.042  0.000  0.000  0.000  0.000  0.000  0.167
    4  0.000  0.125  0.000  0.042  0.000  0.000  0.000  0.000  0.000  0.167
tot    0.000  0.270  0.000  0.090  0.024  0.092  0.000  0.031  0.073  0.581
 
band    18 # energy    5.44551814 # occ.  1.00000000
 
ion      s     py     pz     px    dxy    dyz    dz2    dxz  x2-y2    tot
    1  0.000  0.000  0.000  0.000  0.006  0.201  0.000  0.067  0.018  0.293
    2  0.000  0.022  0.000  0.007  0.003  0.000  0.000  0.000  0.008  0.040
    3  0.000  0.114  0.000  0.038  0.000  0.002  0.000  0.001  0.000  0.156
    4  0.000  0.114  0.000  0.038  0.000  0.002  0.000  0.001  0.000  0.156
tot    0.000  0.251  0.000  0.084  0.009  0.207  0.000  0.069  0.026  0.645
 
band    19 # energy    5.49493179 # occ.  1.00000000
 
ion      s     py     pz     px    dxy    dyz    dz2    dxz  x2-y2    tot
    1  0.004  0.001  0.001  0.003  0.084  0.052  0.045  0.156  0.028  0.373
    2  0.009  0.002  0.007  0.007  0.000  0.001  0.014  0.004  0.000  0.044
    3  0.017  0.005  0.101  0.014  0.000  0.000  0.000  0.001  0.000  0.140
    4  0.017  0.005  0.101  0.014  0.000  0.000  0.000  0.001  0.000  0.140
tot    0.047  0.013  0.211  0.039  0.084  0.054  0.060  0.162  0.028  0.697
 
band    20 # energy    6.57908430 # occ.  0.00108828
 
ion      s     py     pz     px    dxy    dyz    dz2    dxz  x2-y2    tot
    1  0.007  0.000  0.008  0.001  0.004  0.001  0.000  0.003  0.001  0.027
    2  0.003  0.000  0.000  0.001  0.149  0.058  0.191  0.173  0.050  0.625
    3  0.003  0.000  0.007  0.000  0.004  0.001  0.003  0.002  0.001  0.020
    4  0.003  0.000  0.007  0.000  0.004  0.001  0.003  0.002  0.001  0.020
tot    0.016  0.001  0.021  0.002  0.160  0.060  0.197  0.179  0.053  0.690
 
band    21 # energy    7.41131078 # occ.  0.00000000
 
ion      s     py     pz     px    dxy    dyz    dz2    dxz  x2-y2    tot
    1  0.000  0.003  0.000  0.001  0.000  0.002  0.000  0.001  0.000  0.008
    2  0.000  0.001  0.000  0.000  0.213  0.000  0.000  0.000  0.639  0.852
    3  0.000  0.004  0.000  0.001  0.000  0.002  0.000  0.001  0.001  0.008
    4  0.000  0.004  0.000  0.001  0.000  0.002  0.000  0.001  0.001  0.008
tot    0.000  0.012  0.000  0.004  0.213  0.006  0.000  0.002  0.640  0.877
 
band    22 # energy    7.42062853 # occ.  0.00000000
 
ion      s     py     pz     px    dxy    dyz    dz2    dxz  x2-y2    tot
    1  0.022  0.000  0.001  0.000  0.001  0.000  0.002  0.001  0.000  0.027
    2  0.008  0.000  0.001  0.000  0.269  0.001  0.401  0.004  0.090  0.774
    3  0.003  0.001  0.006  0.004  0.000  0.001  0.000  0.002  0.000  0.018
    4  0.003  0.001  0.006  0.004  0.000  0.001  0.000  0.002  0.000  0.018
tot    0.037  0.003  0.014  0.009  0.271  0.003  0.404  0.008  0.090  0.838
 
band    23 # energy    7.74716068 # occ.  0.00000000
 
ion      s     py     pz     px    dxy    dyz    dz2    dxz  x2-y2    tot
    1  0.000  0.017  0.000  0.006  0.000  0.000  0.000  0.000  0.001  0.024
    2  0.000  0.000  0.000  0.000  0.002  0.555  0.000  0.185  0.005  0.746
    3  0.000  0.020  0.000  0.007  0.000  0.005  0.000  0.002  0.000  0.033
    4  0.000  0.020  0.000  0.007  0.000  0.005  0.000  0.002  0.000  0.033
tot    0.000  0.058  0.000  0.019  0.002  0.564  0.000  0.188  0.007  0.838
 
band    24 # energy    7.82529217 # occ.  0.00000000
 
ion      s     py     pz     px    dxy    dyz    dz2    dxz  x2-y2    tot
    1  0.088  0.000  0.000  0.001  0.001  0.000  0.002  0.000  0.000  0.094
    2  0.015  0.002  0.002  0.007  0.004  0.090  0.130  0.269  0.001  0.521
    3  0.022  0.003  0.003  0.009  0.002  0.002  0.000  0.006  0.001  0.048
    4  0.022  0.003  0.003  0.009  0.002  0.002  0.000  0.006  0.001  0.048
tot    0.147  0.009  0.009  0.027  0.009  0.094  0.132  0.282  0.003  0.711
 

 k-point    38 :    0.44736842 0.00000000 0.50000000     weight = 0.02500000

band     1 # energy  -44.23218325 # occ.  1.00000000
 
ion      s     py     pz     px    dxy    dyz    dz2    dxz  x2-y2    tot
    1  0.000  0.247  0.000  0.748  0.000  0.000  0.000  0.000  0.000  0.995
    2  0.000  0.000  0.000  0.000  0.000  0.000  0.000  0.000  0.000  0.000
    3  0.000  0.000  0.000  0.000  0.000  0.000  0.000  0.000  0.000  0.000
    4  0.000  0.000  0.000  0.000  0.000  0.000  0.000  0.000  0.000  0.000
tot    0.000  0.247  0.000  0.748  0.000  0.000  0.000  0.000  0.000  0.995
 
band     2 # energy  -44.23148622 # occ.  1.00000000
 
ion      s     py     pz     px    dxy    dyz    dz2    dxz  x2-y2    tot
    1  0.000  0.749  0.000  0.247  0.000  0.000  0.000  0.000  0.000  0.995
    2  0.000  0.000  0.000  0.000  0.000  0.000  0.000  0.000  0.000  0.000
    3  0.000  0.000  0.000  0.000  0.000  0.000  0.000  0.000  0.000  0.000
    4  0.000  0.000  0.000  0.000  0.000  0.000  0.000  0.000  0.000  0.000
tot    0.000  0.749  0.000  0.247  0.000  0.000  0.000  0.000  0.000  0.995
 
band     3 # energy  -44.22815468 # occ.  1.00000000
 
ion      s     py     pz     px    dxy    dyz    dz2    dxz  x2-y2    tot
    1  0.000  0.000  0.995  0.000  0.000  0.000  0.000  0.000  0.000  0.995
    2  0.000  0.000  0.000  0.000  0.000  0.000  0.000  0.000  0.000  0.000
    3  0.000  0.000  0.000  0.000  0.000  0.000  0.000  0.000  0.000  0.000
    4  0.000  0.000  0.000  0.000  0.000  0.000  0.000  0.000  0.000  0.000
tot    0.000  0.000  0.995  0.000  0.000  0.000  0.000  0.000  0.000  0.995
 
band     4 # energy  -39.85039584 # occ.  1.00000000
 
ion      s     py     pz     px    dxy    dyz    dz2    dxz  x2-y2    tot
    1  0.000  0.000  0.000  0.000  0.000  0.000  0.000  0.000  0.000  0.000
    2  0.000  0.000  0.995  0.000  0.000  0.000  0.000  0.000  0.000  0.995
    3  0.000  0.000  0.000  0.000  0.000  0.000  0.000  0.000  0.000  0.000
    4  0.000  0.000  0.000  0.000  0.000  0.000  0.000  0.000  0.000  0.000
tot    0.000  0.000  0.995  0.000  0.000  0.000  0.000  0.000  0.000  0.995
 
band     5 # energy  -39.84498960 # occ.  1.00000000
 
ion      s     py     pz     px    dxy    dyz    dz2    dxz  x2-y2    tot
    1  0.000  0.000  0.000  0.000  0.000  0.000  0.000  0.000  0.000  0.000
    2  0.000  0.247  0.000  0.749  0.000  0.000  0.000  0.000  0.000  0.995
    3  0.000  0.000  0.000  0.000  0.000  0.000  0.000  0.000  0.000  0.000
    4  0.000  0.000  0.000  0.000  0.000  0.000  0.000  0.000  0.000  0.000
tot    0.000  0.247  0.000  0.749  0.000  0.000  0.000  0.000  0.000  0.995
 
band     6 # energy  -39.84394631 # occ.  1.00000000
 
ion      s     py     pz     px    dxy    dyz    dz2    dxz  x2-y2    tot
    1  0.000  0.000  0.000  0.000  0.000  0.000  0.000  0.000  0.000  0.000
    2  0.000  0.749  0.000  0.247  0.000  0.000  0.000  0.000  0.000  0.995
    3  0.000  0.000  0.000  0.000  0.000  0.000  0.000  0.000  0.000  0.000
    4  0.000  0.000  0.000  0.000  0.000  0.000  0.000  0.000  0.000  0.000
tot    0.000  0.749  0.000  0.247  0.000  0.000  0.000  0.000  0.000  0.996
 
band     7 # energy   -4.72460179 # occ.  1.00000000
 
ion      s     py     pz     px    dxy    dyz    dz2    dxz  x2-y2    tot
    1  0.004  0.000  0.000  0.000  0.003  0.002  0.000  0.007  0.001  0.019
    2  0.000  0.001  0.001  0.004  0.000  0.000  0.000  0.000  0.000  0.007
    3  0.328  0.000  0.000  0.000  0.000  0.000  0.000  0.000  0.000  0.328
    4  0.328  0.000  0.000  0.000  0.000  0.000  0.000  0.000  0.000  0.328
tot    0.660  0.001  0.001  0.004  0.004  0.002  0.000  0.007  0.001  0.681
 
band     8 # energy   -4.70180806 # occ.  1.00000000
 
ion      s     py     pz     px    dxy    dyz    dz2    dxz  x2-y2    tot
    1  0.001  0.002  0.001  0.005  0.000  0.000  0.000  0.000  0.000  0.008
    2  0.003  0.000  0.000  0.000  0.002  0.001  0.000  0.004  0.001  0.012
    3  0.330  0.000  0.000  0.000  0.000  0.000  0.000  0.000  0.000  0.330
    4  0.330  0.000  0.000  0.000  0.000  0.000  0.000  0.000  0.000  0.330
tot    0.664  0.002  0.001  0.005  0.002  0.001  0.000  0.004  0.001  0.681
 
band     9 # energy    0.94157623 # occ.  1.00000000
 
ion      s     py     pz     px    dxy    dyz    dz2    dxz  x2-y2    tot
    1  0.083  0.000  0.000  0.000  0.028  0.004  0.007  0.011  0.009  0.143
    2  0.000  0.002  0.009  0.006  0.001  0.000  0.000  0.001  0.000  0.019
    3  0.002  0.025  0.021  0.075  0.000  0.000  0.000  0.000  0.000  0.123
    4  0.002  0.025  0.021  0.075  0.000  0.000  0.000  0.000  0.000  0.123
tot    0.088  0.052  0.050  0.156  0.029  0.004  0.007  0.012  0.010  0.408
 
band    10 # energy    1.19445702 # occ.  1.00000000
 
ion      s     py     pz     px    dxy    dyz    dz2    dxz  x2-y2    tot
    1  0.000  0.003  0.013  0.009  0.006  0.002  0.000  0.005  0.002  0.040
    2  0.063  0.000  0.000  0.000  0.006  0.001  0.002  0.002  0.002  0.075
    3  0.001  0.027  0.025  0.082  0.000  0.000  0.000  0.000  0.000  0.136
    4  0.001  0.027  0.025  0.082  0.000  0.000  0.000  0.000  0.000  0.136
tot    0.066  0.058  0.062  0.174  0.012  0.002  0.002  0.007  0.004  0.386
 
band    11 # energy    2.62785869 # occ.  1.00000000
 
ion      s     py     pz     px    dxy    dyz    dz2    dxz  x2-y2    tot
    1  0.002  0.000  0.000  0.001  0.168  0.039  0.185  0.116  0.056  0.567
    2  0.000  0.001  0.006  0.004  0.000  0.000  0.000  0.000  0.000  0.011
    3  0.001  0.003  0.059  0.009  0.001  0.000  0.000  0.000  0.000  0.072
    4  0.001  0.003  0.059  0.009  0.001  0.000  0.000  0.000  0.000  0.072
tot    0.003  0.007  0.124  0.022  0.170  0.039  0.185  0.116  0.057  0.722
 
band    12 # energy    2.63852548 # occ.  1.00000000
 
ion      s     py     pz     px    dxy    dyz    dz2    dxz  x2-y2    tot
    1  0.000  0.000  0.000  0.000  0.013  0.430  0.000  0.143  0.039  0.625
    2  0.000  0.004  0.000  0.001  0.000  0.000  0.000  0.000  0.000  0.006
    3  0.000  0.051  0.000  0.017  0.000  0.000  0.000  0.000  0.000  0.068
    4  0.000  0.051  0.000  0.017  0.000  0.000  0.000  0.000  0.000  0.068
tot    0.000  0.105  0.000  0.035  0.013  0.430  0.000  0.143  0.040  0.767
 
band    13 # energy    3.24741471 # occ.  1.00000000
 
ion      s     py     pz     px    dxy    dyz    dz2    dxz  x2-y2    tot
    1  0.001  0.000  0.000  0.000  0.040  0.118  0.299  0.354  0.013  0.826
    2  0.000  0.001  0.001  0.002  0.000  0.000  0.001  0.000  0.000  0.004
    3  0.001  0.000  0.011  0.001  0.000  0.000  0.001  0.000  0.000  0.015
    4  0.001  0.000  0.011  0.001  0.000  0.000  0.001  0.000  0.000  0.015
tot    0.003  0.001  0.024  0.003  0.041  0.118  0.301  0.355  0.014  0.860
 
band    14 # energy    3.44381320 # occ.  1.00000000
 
ion      s     py     pz     px    dxy    dyz    dz2    dxz  x2-y2    tot
    1  0.000  0.001  0.000  0.000  0.200  0.054  0.000  0.018  0.600  0.873
    2  0.000  0.000  0.000  0.000  0.000  0.004  0.000  0.001  0.000  0.005
    3  0.000  0.008  0.000  0.003  0.000  0.000  0.000  0.000  0.000  0.011
    4  0.000  0.008  0.000  0.003  0.000  0.000  0.000  0.000  0.000  0.011
tot    0.000  0.017  0.000  0.006  0.200  0.058  0.000  0.019  0.600  0.900
 
band    15 # energy    3.53141374 # occ.  1.00000000
 
ion      s     py     pz     px    dxy    dyz    dz2    dxz  x2-y2    tot
    1  0.016  0.001  0.004  0.002  0.262  0.013  0.235  0.038  0.087  0.658
    2  0.002  0.000  0.000  0.000  0.008  0.004  0.005  0.013  0.003  0.036
    3  0.001  0.004  0.035  0.011  0.000  0.000  0.000  0.000  0.000  0.051
    4  0.001  0.004  0.035  0.011  0.000  0.000  0.000  0.000  0.000  0.051
tot    0.020  0.008  0.074  0.024  0.271  0.017  0.240  0.051  0.090  0.795
 
band    16 # energy    3.84467613 # occ.  1.00000000
 
ion      s     py     pz     px    dxy    dyz    dz2    dxz  x2-y2    tot
    1  0.002  0.003  0.011  0.010  0.075  0.001  0.136  0.002  0.025  0.265
    2  0.002  0.000  0.000  0.001  0.027  0.010  0.017  0.030  0.009  0.097
    3  0.001  0.005  0.108  0.016  0.001  0.000  0.000  0.000  0.000  0.132
    4  0.001  0.005  0.108  0.016  0.001  0.000  0.000  0.000  0.000  0.132
tot    0.005  0.015  0.228  0.044  0.103  0.011  0.153  0.033  0.034  0.625
 
band    17 # energy    3.93452837 # occ.  1.00000000
 
ion      s     py     pz     px    dxy    dyz    dz2    dxz  x2-y2    tot
    1  0.000  0.021  0.000  0.007  0.013  0.003  0.000  0.001  0.038  0.083
    2  0.000  0.000  0.000  0.000  0.003  0.088  0.000  0.029  0.010  0.130
    3  0.000  0.130  0.000  0.043  0.000  0.000  0.000  0.000  0.000  0.174
    4  0.000  0.130  0.000  0.043  0.000  0.000  0.000  0.000  0.000  0.174
tot    0.000  0.282  0.000  0.094  0.016  0.091  0.000  0.030  0.048  0.561
 
band    18 # energy    5.44231082 # occ.  1.00000000
 
ion      s     py     pz     px    dxy    dyz    dz2    dxz  x2-y2    tot
    1  0.000  0.000  0.000  0.000  0.006  0.207  0.000  0.069  0.017  0.298
    2  0.000  0.022  0.000  0.007  0.001  0.000  0.000  0.000  0.004  0.035
    3  0.000  0.114  0.000  0.038  0.000  0.002  0.000  0.001  0.000  0.156
    4  0.000  0.114  0.000  0.038  0.000  0.002  0.000  0.001  0.000  0.156
tot    0.000  0.252  0.000  0.084  0.007  0.212  0.000  0.071  0.020  0.645
 
band    19 # energy    5.58389296 # occ.  1.00000000
 
ion      s     py     pz     px    dxy    dyz    dz2    dxz  x2-y2    tot
    1  0.005  0.000  0.001  0.001  0.093  0.052  0.039  0.155  0.031  0.378
    2  0.005  0.003  0.006  0.009  0.000  0.001  0.009  0.002  0.000  0.035
    3  0.018  0.004  0.107  0.013  0.000  0.000  0.000  0.001  0.000  0.144
    4  0.018  0.004  0.107  0.013  0.000  0.000  0.000  0.001  0.000  0.144
tot    0.046  0.012  0.222  0.037  0.093  0.053  0.049  0.158  0.031  0.701
 
band    20 # energy    6.56076742 # occ.  0.00543362
 
ion      s     py     pz     px    dxy    dyz    dz2    dxz  x2-y2    tot
    1  0.004  0.001  0.009  0.002  0.003  0.001  0.000  0.002  0.001  0.021
    2  0.002  0.000  0.000  0.001  0.133  0.061  0.213  0.182  0.044  0.635
    3  0.002  0.000  0.006  0.000  0.003  0.001  0.003  0.002  0.001  0.018
    4  0.002  0.000  0.006  0.000  0.003  0.001  0.003  0.002  0.001  0.018
tot    0.009  0.001  0.021  0.003  0.142  0.063  0.219  0.188  0.047  0.691
 
band    21 # energy    7.39894486 # occ.  0.00000000
 
ion      s     py     pz     px    dxy    dyz    dz2    dxz  x2-y2    tot
    1  0.000  0.004  0.000  0.001  0.000  0.001  0.000  0.000  0.000  0.006
    2  0.000  0.000  0.000  0.000  0.214  0.001  0.000  0.000  0.642  0.858
    3  0.000  0.003  0.000  0.001  0.000  0.002  0.000  0.001  0.001  0.007
    4  0.000  0.003  0.000  0.001  0.000  0.002  0.000  0.001  0.001  0.007
tot    0.000  0.009  0.000  0.003  0.214  0.006  0.000  0.002  0.643  0.877
 
band    22 # energy    7.44164176 # occ.  0.00000000
 
ion      s     py     pz     px    dxy    dyz    dz2    dxz  x2-y2    tot
    1  0.010  0.000  0.001  0.000  0.001  0.000  0.001  0.001  0.000  0.013
    2  0.015  0.000  0.001  0.000  0.270  0.001  0.440  0.002  0.090  0.818
    3  0.001  0.001  0.003  0.003  0.000  0.000  0.000  0.001  0.000  0.011
    4  0.001  0.001  0.003  0.003  0.000  0.000  0.000  0.001  0.000  0.011
tot    0.027  0.002  0.009  0.005  0.271  0.002  0.442  0.005  0.090  0.853
 
band    23 # energy    7.74591092 # occ.  0.00000000
 
ion      s     py     pz     px    dxy    dyz    dz2    dxz  x2-y2    tot
    1  0.000  0.017  0.000  0.006  0.000  0.000  0.000  0.000  0.001  0.024
    2  0.000  0.000  0.000  0.000  0.003  0.554  0.000  0.185  0.009  0.750
    3  0.000  0.019  0.000  0.006  0.000  0.005  0.000  0.002  0.000  0.032
    4  0.000  0.019  0.000  0.006  0.000  0.005  0.000  0.002  0.000  0.032
tot    0.000  0.056  0.000  0.019  0.003  0.563  0.000  0.188  0.010  0.839
 
band    24 # energy    7.87691948 # occ.  0.00000000
 
ion      s     py     pz     px    dxy    dyz    dz2    dxz  x2-y2    tot
    1  0.116  0.001  0.000  0.002  0.001  0.000  0.003  0.001  0.000  0.125
    2  0.015  0.003  0.003  0.008  0.016  0.071  0.061  0.212  0.005  0.393
    3  0.025  0.004  0.004  0.013  0.003  0.003  0.000  0.008  0.001  0.061
    4  0.025  0.004  0.004  0.013  0.003  0.003  0.000  0.008  0.001  0.061
tot    0.180  0.012  0.012  0.036  0.023  0.076  0.064  0.228  0.008  0.639
 

 k-point    39 :    0.47368421 0.00000000 0.50000000     weight = 0.02500000

band     1 # energy  -44.23220567 # occ.  1.00000000
 
ion      s     py     pz     px    dxy    dyz    dz2    dxz  x2-y2    tot
    1  0.000  0.247  0.000  0.748  0.000  0.000  0.000  0.000  0.000  0.995
    2  0.000  0.000  0.000  0.000  0.000  0.000  0.000  0.000  0.000  0.000
    3  0.000  0.000  0.000  0.000  0.000  0.000  0.000  0.000  0.000  0.000
    4  0.000  0.000  0.000  0.000  0.000  0.000  0.000  0.000  0.000  0.000
tot    0.000  0.247  0.000  0.748  0.000  0.000  0.000  0.000  0.000  0.995
 
band     2 # energy  -44.23148793 # occ.  1.00000000
 
ion      s     py     pz     px    dxy    dyz    dz2    dxz  x2-y2    tot
    1  0.000  0.748  0.000  0.247  0.000  0.000  0.000  0.000  0.000  0.995
    2  0.000  0.000  0.000  0.000  0.000  0.000  0.000  0.000  0.000  0.000
    3  0.000  0.000  0.000  0.000  0.000  0.000  0.000  0.000  0.000  0.000
    4  0.000  0.000  0.000  0.000  0.000  0.000  0.000  0.000  0.000  0.000
tot    0.000  0.748  0.000  0.247  0.000  0.000  0.000  0.000  0.000  0.995
 
band     3 # energy  -44.22814933 # occ.  1.00000000
 
ion      s     py     pz     px    dxy    dyz    dz2    dxz  x2-y2    tot
    1  0.000  0.000  0.995  0.000  0.000  0.000  0.000  0.000  0.000  0.995
    2  0.000  0.000  0.000  0.000  0.000  0.000  0.000  0.000  0.000  0.000
    3  0.000  0.000  0.000  0.000  0.000  0.000  0.000  0.000  0.000  0.000
    4  0.000  0.000  0.000  0.000  0.000  0.000  0.000  0.000  0.000  0.000
tot    0.000  0.000  0.995  0.000  0.000  0.000  0.000  0.000  0.000  0.995
 
band     4 # energy  -39.85038794 # occ.  1.00000000
 
ion      s     py     pz     px    dxy    dyz    dz2    dxz  x2-y2    tot
    1  0.000  0.000  0.000  0.000  0.000  0.000  0.000  0.000  0.000  0.000
    2  0.000  0.000  0.995  0.000  0.000  0.000  0.000  0.000  0.000  0.995
    3  0.000  0.000  0.000  0.000  0.000  0.000  0.000  0.000  0.000  0.000
    4  0.000  0.000  0.000  0.000  0.000  0.000  0.000  0.000  0.000  0.000
tot    0.000  0.000  0.995  0.000  0.000  0.000  0.000  0.000  0.000  0.995
 
band     5 # energy  -39.84502471 # occ.  1.00000000
 
ion      s     py     pz     px    dxy    dyz    dz2    dxz  x2-y2    tot
    1  0.000  0.000  0.000  0.000  0.000  0.000  0.000  0.000  0.000  0.000
    2  0.000  0.247  0.000  0.749  0.000  0.000  0.000  0.000  0.000  0.995
    3  0.000  0.000  0.000  0.000  0.000  0.000  0.000  0.000  0.000  0.000
    4  0.000  0.000  0.000  0.000  0.000  0.000  0.000  0.000  0.000  0.000
tot    0.000  0.247  0.000  0.749  0.000  0.000  0.000  0.000  0.000  0.995
 
band     6 # energy  -39.84394999 # occ.  1.00000000
 
ion      s     py     pz     px    dxy    dyz    dz2    dxz  x2-y2    tot
    1  0.000  0.000  0.000  0.000  0.000  0.000  0.000  0.000  0.000  0.000
    2  0.000  0.749  0.000  0.247  0.000  0.000  0.000  0.000  0.000  0.995
    3  0.000  0.000  0.000  0.000  0.000  0.000  0.000  0.000  0.000  0.000
    4  0.000  0.000  0.000  0.000  0.000  0.000  0.000  0.000  0.000  0.000
tot    0.000  0.749  0.000  0.247  0.000  0.000  0.000  0.000  0.000  0.996
 
band     7 # energy   -4.70555975 # occ.  1.00000000
 
ion      s     py     pz     px    dxy    dyz    dz2    dxz  x2-y2    tot
    1  0.004  0.000  0.000  0.000  0.004  0.002  0.000  0.007  0.001  0.019
    2  0.000  0.001  0.001  0.004  0.000  0.000  0.000  0.000  0.000  0.006
    3  0.329  0.000  0.000  0.000  0.000  0.000  0.000  0.000  0.000  0.329
    4  0.329  0.000  0.000  0.000  0.000  0.000  0.000  0.000  0.000  0.329
tot    0.662  0.001  0.001  0.004  0.004  0.002  0.000  0.007  0.001  0.683
 
band     8 # energy   -4.68130202 # occ.  1.00000000
 
ion      s     py     pz     px    dxy    dyz    dz2    dxz  x2-y2    tot
    1  0.000  0.002  0.001  0.005  0.000  0.000  0.000  0.000  0.000  0.008
    2  0.003  0.000  0.000  0.000  0.002  0.001  0.000  0.004  0.001  0.012
    3  0.332  0.000  0.000  0.000  0.000  0.000  0.000  0.000  0.000  0.332
    4  0.332  0.000  0.000  0.000  0.000  0.000  0.000  0.000  0.000  0.332
tot    0.666  0.002  0.001  0.005  0.002  0.001  0.000  0.004  0.001  0.683
 
band     9 # energy    0.89670315 # occ.  1.00000000
 
ion      s     py     pz     px    dxy    dyz    dz2    dxz  x2-y2    tot
    1  0.084  0.000  0.000  0.000  0.027  0.004  0.007  0.011  0.009  0.143
    2  0.000  0.002  0.009  0.006  0.000  0.000  0.000  0.000  0.000  0.018
    3  0.001  0.025  0.020  0.075  0.000  0.000  0.000  0.000  0.000  0.121
    4  0.001  0.025  0.020  0.075  0.000  0.000  0.000  0.000  0.000  0.121
tot    0.086  0.052  0.049  0.157  0.027  0.004  0.007  0.012  0.009  0.403
 
band    10 # energy    1.16383580 # occ.  1.00000000
 
ion      s     py     pz     px    dxy    dyz    dz2    dxz  x2-y2    tot
    1  0.000  0.003  0.014  0.010  0.001  0.000  0.000  0.001  0.000  0.031
    2  0.064  0.000  0.000  0.000  0.006  0.001  0.002  0.002  0.002  0.076
    3  0.000  0.028  0.024  0.084  0.000  0.000  0.000  0.000  0.000  0.136
    4  0.000  0.028  0.024  0.084  0.000  0.000  0.000  0.000  0.000  0.136
tot    0.065  0.059  0.061  0.177  0.008  0.001  0.002  0.003  0.003  0.378
 
band    11 # energy    2.60894750 # occ.  1.00000000
 
ion      s     py     pz     px    dxy    dyz    dz2    dxz  x2-y2    tot
    1  0.003  0.000  0.000  0.000  0.181  0.041  0.166  0.122  0.060  0.573
    2  0.000  0.001  0.005  0.004  0.000  0.000  0.000  0.000  0.000  0.011
    3  0.000  0.003  0.060  0.008  0.001  0.000  0.000  0.000  0.000  0.071
    4  0.000  0.003  0.060  0.008  0.001  0.000  0.000  0.000  0.000  0.071
tot    0.004  0.006  0.125  0.019  0.183  0.041  0.166  0.122  0.061  0.726
 
band    12 # energy    2.63326667 # occ.  1.00000000
 
ion      s     py     pz     px    dxy    dyz    dz2    dxz  x2-y2    tot
    1  0.000  0.000  0.000  0.000  0.012  0.431  0.000  0.144  0.037  0.623
    2  0.000  0.004  0.000  0.001  0.000  0.000  0.000  0.000  0.000  0.006
    3  0.000  0.051  0.000  0.017  0.000  0.000  0.000  0.000  0.000  0.069
    4  0.000  0.051  0.000  0.017  0.000  0.000  0.000  0.000  0.000  0.069
tot    0.000  0.106  0.000  0.035  0.013  0.431  0.000  0.144  0.038  0.766
 
band    13 # energy    3.24559439 # occ.  1.00000000
 
ion      s     py     pz     px    dxy    dyz    dz2    dxz  x2-y2    tot
    1  0.001  0.000  0.000  0.000  0.045  0.118  0.302  0.355  0.015  0.836
    2  0.000  0.001  0.001  0.002  0.000  0.000  0.000  0.000  0.000  0.003
    3  0.001  0.000  0.010  0.000  0.000  0.000  0.001  0.000  0.000  0.013
    4  0.001  0.000  0.010  0.000  0.000  0.000  0.001  0.000  0.000  0.013
tot    0.003  0.001  0.020  0.002  0.046  0.119  0.303  0.356  0.015  0.865
 
band    14 # energy    3.46823291 # occ.  1.00000000
 
ion      s     py     pz     px    dxy    dyz    dz2    dxz  x2-y2    tot
    1  0.000  0.000  0.000  0.000  0.210  0.053  0.000  0.018  0.629  0.910
    2  0.000  0.000  0.000  0.000  0.000  0.001  0.000  0.000  0.000  0.002
    3  0.000  0.003  0.000  0.001  0.000  0.000  0.000  0.000  0.000  0.004
    4  0.000  0.003  0.000  0.001  0.000  0.000  0.000  0.000  0.000  0.004
tot    0.000  0.006  0.000  0.002  0.210  0.054  0.000  0.018  0.630  0.919
 
band    15 # energy    3.58218375 # occ.  1.00000000
 
ion      s     py     pz     px    dxy    dyz    dz2    dxz  x2-y2    tot
    1  0.016  0.000  0.002  0.001  0.281  0.012  0.318  0.036  0.094  0.761
    2  0.001  0.000  0.000  0.000  0.005  0.002  0.003  0.007  0.002  0.020
    3  0.001  0.003  0.020  0.008  0.000  0.000  0.000  0.000  0.000  0.032
    4  0.001  0.003  0.020  0.008  0.000  0.000  0.000  0.000  0.000  0.032
tot    0.018  0.006  0.042  0.018  0.286  0.015  0.321  0.044  0.095  0.844
 
band    16 # energy    3.78366286 # occ.  1.00000000
 
ion      s     py     pz     px    dxy    dyz    dz2    dxz  x2-y2    tot
    1  0.001  0.004  0.013  0.012  0.041  0.001  0.071  0.002  0.014  0.158
    2  0.003  0.000  0.000  0.000  0.032  0.013  0.018  0.038  0.011  0.116
    3  0.001  0.006  0.125  0.018  0.001  0.000  0.000  0.000  0.000  0.151
    4  0.001  0.006  0.125  0.018  0.001  0.000  0.000  0.000  0.000  0.151
tot    0.007  0.016  0.263  0.047  0.074  0.013  0.089  0.040  0.025  0.576
 
band    17 # energy    3.89930812 # occ.  1.00000000
 
ion      s     py     pz     px    dxy    dyz    dz2    dxz  x2-y2    tot
    1  0.000  0.022  0.000  0.007  0.004  0.001  0.000  0.000  0.012  0.047
    2  0.000  0.000  0.000  0.000  0.003  0.090  0.000  0.030  0.010  0.132
    3  0.000  0.136  0.000  0.045  0.000  0.000  0.000  0.000  0.000  0.181
    4  0.000  0.136  0.000  0.045  0.000  0.000  0.000  0.000  0.000  0.181
tot    0.000  0.294  0.000  0.098  0.007  0.091  0.000  0.030  0.022  0.542
 
band    18 # energy    5.44074896 # occ.  1.00000000
 
ion      s     py     pz     px    dxy    dyz    dz2    dxz  x2-y2    tot
    1  0.000  0.000  0.000  0.000  0.005  0.210  0.000  0.070  0.016  0.301
    2  0.000  0.023  0.000  0.008  0.000  0.000  0.000  0.000  0.001  0.032
    3  0.000  0.115  0.000  0.038  0.000  0.002  0.000  0.001  0.000  0.156
    4  0.000  0.115  0.000  0.038  0.000  0.002  0.000  0.001  0.000  0.156
tot    0.000  0.252  0.000  0.084  0.006  0.215  0.000  0.072  0.017  0.645
 
band    19 # energy    5.64497689 # occ.  1.00000000
 
ion      s     py     pz     px    dxy    dyz    dz2    dxz  x2-y2    tot
    1  0.006  0.000  0.000  0.000  0.099  0.052  0.036  0.155  0.033  0.382
    2  0.001  0.003  0.006  0.010  0.000  0.000  0.003  0.001  0.000  0.025
    3  0.019  0.004  0.112  0.013  0.000  0.000  0.000  0.000  0.000  0.149
    4  0.019  0.004  0.112  0.013  0.000  0.000  0.000  0.000  0.000  0.149
tot    0.045  0.012  0.230  0.036  0.100  0.052  0.039  0.156  0.033  0.705
 
band    20 # energy    6.54636419 # occ.  0.01619540
 
ion      s     py     pz     px    dxy    dyz    dz2    dxz  x2-y2    tot
    1  0.001  0.001  0.010  0.002  0.001  0.000  0.000  0.001  0.000  0.016
    2  0.001  0.000  0.000  0.000  0.122  0.063  0.230  0.188  0.041  0.644
    3  0.001  0.000  0.005  0.000  0.003  0.001  0.003  0.002  0.001  0.016
    4  0.001  0.000  0.005  0.000  0.003  0.001  0.003  0.002  0.001  0.016
tot    0.003  0.001  0.020  0.003  0.129  0.064  0.236  0.192  0.043  0.692
 
band    21 # energy    7.39122650 # occ.  0.00000000
 
ion      s     py     pz     px    dxy    dyz    dz2    dxz  x2-y2    tot
    1  0.000  0.004  0.000  0.001  0.000  0.000  0.000  0.000  0.000  0.005
    2  0.000  0.000  0.000  0.000  0.215  0.002  0.000  0.001  0.644  0.861
    3  0.000  0.002  0.000  0.001  0.000  0.002  0.000  0.001  0.001  0.006
    4  0.000  0.002  0.000  0.001  0.000  0.002  0.000  0.001  0.001  0.006
tot    0.000  0.008  0.000  0.003  0.215  0.006  0.000  0.002  0.645  0.878
 
band    22 # energy    7.44991056 # occ.  0.00000000
 
ion      s     py     pz     px    dxy    dyz    dz2    dxz  x2-y2    tot
    1  0.002  0.000  0.001  0.000  0.000  0.000  0.000  0.000  0.000  0.004
    2  0.021  0.000  0.000  0.000  0.265  0.004  0.456  0.012  0.088  0.847
    3  0.000  0.000  0.001  0.001  0.000  0.000  0.000  0.001  0.000  0.005
    4  0.000  0.000  0.001  0.001  0.000  0.000  0.000  0.001  0.000  0.005
tot    0.024  0.001  0.003  0.003  0.266  0.005  0.457  0.014  0.089  0.861
 
band    23 # energy    7.74524324 # occ.  0.00000000
 
ion      s     py     pz     px    dxy    dyz    dz2    dxz  x2-y2    tot
    1  0.000  0.017  0.000  0.006  0.000  0.000  0.000  0.000  0.000  0.023
    2  0.000  0.000  0.000  0.000  0.004  0.553  0.000  0.184  0.011  0.753
    3  0.000  0.019  0.000  0.006  0.000  0.005  0.000  0.002  0.000  0.032
    4  0.000  0.019  0.000  0.006  0.000  0.005  0.000  0.002  0.000  0.032
tot    0.000  0.055  0.000  0.018  0.004  0.562  0.000  0.187  0.012  0.839
 
band    24 # energy    7.95134125 # occ.  0.00000000
 
ion      s     py     pz     px    dxy    dyz    dz2    dxz  x2-y2    tot
    1  0.152  0.001  0.000  0.003  0.000  0.001  0.004  0.003  0.000  0.163
    2  0.010  0.003  0.004  0.008  0.024  0.041  0.021  0.123  0.008  0.241
    3  0.024  0.006  0.006  0.019  0.004  0.003  0.000  0.010  0.001  0.075
    4  0.024  0.006  0.006  0.019  0.004  0.003  0.000  0.010  0.001  0.075
tot    0.211  0.016  0.017  0.049  0.033  0.048  0.025  0.144  0.011  0.555
 

 k-point    40 :    0.50000000 0.00000000 0.50000000     weight = 0.02500000

band     1 # energy  -44.23221727 # occ.  1.00000000
 
ion      s     py     pz     px    dxy    dyz    dz2    dxz  x2-y2    tot
    1  0.000  0.247  0.000  0.748  0.000  0.000  0.000  0.000  0.000  0.995
    2  0.000  0.000  0.000  0.000  0.000  0.000  0.000  0.000  0.000  0.000
    3  0.000  0.000  0.000  0.000  0.000  0.000  0.000  0.000  0.000  0.000
    4  0.000  0.000  0.000  0.000  0.000  0.000  0.000  0.000  0.000  0.000
tot    0.000  0.247  0.000  0.748  0.000  0.000  0.000  0.000  0.000  0.995
 
band     2 # energy  -44.23148879 # occ.  1.00000000
 
ion      s     py     pz     px    dxy    dyz    dz2    dxz  x2-y2    tot
    1  0.000  0.748  0.000  0.247  0.000  0.000  0.000  0.000  0.000  0.995
    2  0.000  0.000  0.000  0.000  0.000  0.000  0.000  0.000  0.000  0.000
    3  0.000  0.000  0.000  0.000  0.000  0.000  0.000  0.000  0.000  0.000
    4  0.000  0.000  0.000  0.000  0.000  0.000  0.000  0.000  0.000  0.000
tot    0.000  0.748  0.000  0.247  0.000  0.000  0.000  0.000  0.000  0.995
 
band     3 # energy  -44.22814147 # occ.  1.00000000
 
ion      s     py     pz     px    dxy    dyz    dz2    dxz  x2-y2    tot
    1  0.000  0.000  0.995  0.000  0.000  0.000  0.000  0.000  0.000  0.995
    2  0.000  0.000  0.000  0.000  0.000  0.000  0.000  0.000  0.000  0.000
    3  0.000  0.000  0.000  0.000  0.000  0.000  0.000  0.000  0.000  0.000
    4  0.000  0.000  0.000  0.000  0.000  0.000  0.000  0.000  0.000  0.000
tot    0.000  0.000  0.995  0.000  0.000  0.000  0.000  0.000  0.000  0.995
 
band     4 # energy  -39.85037933 # occ.  1.00000000
 
ion      s     py     pz     px    dxy    dyz    dz2    dxz  x2-y2    tot
    1  0.000  0.000  0.000  0.000  0.000  0.000  0.000  0.000  0.000  0.000
    2  0.000  0.000  0.995  0.000  0.000  0.000  0.000  0.000  0.000  0.995
    3  0.000  0.000  0.000  0.000  0.000  0.000  0.000  0.000  0.000  0.000
    4  0.000  0.000  0.000  0.000  0.000  0.000  0.000  0.000  0.000  0.000
tot    0.000  0.000  0.995  0.000  0.000  0.000  0.000  0.000  0.000  0.995
 
band     5 # energy  -39.84504232 # occ.  1.00000000
 
ion      s     py     pz     px    dxy    dyz    dz2    dxz  x2-y2    tot
    1  0.000  0.000  0.000  0.000  0.000  0.000  0.000  0.000  0.000  0.000
    2  0.000  0.247  0.000  0.749  0.000  0.000  0.000  0.000  0.000  0.995
    3  0.000  0.000  0.000  0.000  0.000  0.000  0.000  0.000  0.000  0.000
    4  0.000  0.000  0.000  0.000  0.000  0.000  0.000  0.000  0.000  0.000
tot    0.000  0.247  0.000  0.749  0.000  0.000  0.000  0.000  0.000  0.995
 
band     6 # energy  -39.84395200 # occ.  1.00000000
 
ion      s     py     pz     px    dxy    dyz    dz2    dxz  x2-y2    tot
    1  0.000  0.000  0.000  0.000  0.000  0.000  0.000  0.000  0.000  0.000
    2  0.000  0.749  0.000  0.247  0.000  0.000  0.000  0.000  0.000  0.995
    3  0.000  0.000  0.000  0.000  0.000  0.000  0.000  0.000  0.000  0.000
    4  0.000  0.000  0.000  0.000  0.000  0.000  0.000  0.000  0.000  0.000
tot    0.000  0.749  0.000  0.247  0.000  0.000  0.000  0.000  0.000  0.996
 
band     7 # energy   -4.69910558 # occ.  1.00000000
 
ion      s     py     pz     px    dxy    dyz    dz2    dxz  x2-y2    tot
    1  0.004  0.000  0.000  0.000  0.004  0.002  0.000  0.007  0.001  0.019
    2  0.000  0.001  0.001  0.004  0.000  0.000  0.000  0.000  0.000  0.006
    3  0.329  0.000  0.000  0.000  0.000  0.000  0.000  0.000  0.000  0.330
    4  0.329  0.000  0.000  0.000  0.000  0.000  0.000  0.000  0.000  0.330
tot    0.663  0.001  0.001  0.004  0.004  0.002  0.000  0.007  0.001  0.684
 
band     8 # energy   -4.67432676 # occ.  1.00000000
 
ion      s     py     pz     px    dxy    dyz    dz2    dxz  x2-y2    tot
    1  0.000  0.002  0.001  0.005  0.000  0.000  0.000  0.000  0.000  0.008
    2  0.003  0.000  0.000  0.000  0.002  0.001  0.000  0.004  0.001  0.012
    3  0.332  0.000  0.000  0.000  0.000  0.000  0.000  0.000  0.000  0.332
    4  0.332  0.000  0.000  0.000  0.000  0.000  0.000  0.000  0.000  0.332
tot    0.667  0.002  0.001  0.005  0.002  0.001  0.000  0.004  0.001  0.684
 
band     9 # energy    0.88156484 # occ.  1.00000000
 
ion      s     py     pz     px    dxy    dyz    dz2    dxz  x2-y2    tot
    1  0.084  0.000  0.000  0.000  0.027  0.004  0.007  0.011  0.009  0.143
    2  0.000  0.002  0.009  0.006  0.000  0.000  0.000  0.000  0.000  0.018
    3  0.000  0.025  0.020  0.076  0.000  0.000  0.000  0.000  0.000  0.121
    4  0.000  0.025  0.020  0.076  0.000  0.000  0.000  0.000  0.000  0.121
tot    0.085  0.052  0.048  0.157  0.027  0.004  0.007  0.012  0.009  0.402
 
band    10 # energy    1.15343508 # occ.  1.00000000
 
ion      s     py     pz     px    dxy    dyz    dz2    dxz  x2-y2    tot
    1  0.000  0.003  0.014  0.010  0.000  0.000  0.000  0.000  0.000  0.027
    2  0.064  0.000  0.000  0.000  0.006  0.001  0.002  0.002  0.002  0.077
    3  0.000  0.028  0.023  0.084  0.000  0.000  0.000  0.000  0.000  0.136
    4  0.000  0.028  0.023  0.084  0.000  0.000  0.000  0.000  0.000  0.136
tot    0.064  0.059  0.061  0.178  0.006  0.001  0.002  0.002  0.002  0.375
 
band    11 # energy    2.60237754 # occ.  1.00000000
 
ion      s     py     pz     px    dxy    dyz    dz2    dxz  x2-y2    tot
    1  0.003  0.000  0.000  0.000  0.185  0.041  0.160  0.123  0.062  0.575
    2  0.000  0.001  0.005  0.004  0.000  0.000  0.000  0.000  0.000  0.010
    3  0.000  0.002  0.060  0.007  0.001  0.000  0.000  0.000  0.000  0.071
    4  0.000  0.002  0.060  0.007  0.001  0.000  0.000  0.000  0.000  0.071
tot    0.004  0.006  0.125  0.019  0.187  0.041  0.160  0.123  0.062  0.728
 
band    12 # energy    2.63148191 # occ.  1.00000000
 
ion      s     py     pz     px    dxy    dyz    dz2    dxz  x2-y2    tot
    1  0.000  0.000  0.000  0.000  0.012  0.431  0.000  0.144  0.036  0.623
    2  0.000  0.004  0.000  0.001  0.000  0.000  0.000  0.000  0.000  0.006
    3  0.000  0.051  0.000  0.017  0.000  0.000  0.000  0.000  0.000  0.069
    4  0.000  0.051  0.000  0.017  0.000  0.000  0.000  0.000  0.000  0.069
tot    0.000  0.106  0.000  0.035  0.012  0.431  0.000  0.144  0.037  0.766
 
band    13 # energy    3.24510955 # occ.  1.00000000
 
ion      s     py     pz     px    dxy    dyz    dz2    dxz  x2-y2    tot
    1  0.001  0.000  0.000  0.000  0.047  0.118  0.302  0.355  0.016  0.840
    2  0.000  0.000  0.001  0.001  0.000  0.000  0.000  0.000  0.000  0.003
    3  0.001  0.000  0.009  0.000  0.000  0.000  0.001  0.000  0.000  0.012
    4  0.001  0.000  0.009  0.000  0.000  0.000  0.001  0.000  0.000  0.012
tot    0.004  0.000  0.019  0.001  0.048  0.119  0.303  0.356  0.016  0.867
 
band    14 # energy    3.47744575 # occ.  1.00000000
 
ion      s     py     pz     px    dxy    dyz    dz2    dxz  x2-y2    tot
    1  0.000  0.000  0.000  0.000  0.214  0.053  0.000  0.018  0.643  0.927
    2  0.000  0.000  0.000  0.000  0.000  0.000  0.000  0.000  0.000  0.000
    3  0.000  0.000  0.000  0.000  0.000  0.000  0.000  0.000  0.000  0.000
    4  0.000  0.000  0.000  0.000  0.000  0.000  0.000  0.000  0.000  0.000
tot    0.000  0.000  0.000  0.000  0.214  0.053  0.000  0.018  0.643  0.927
 
band    15 # energy    3.61030803 # occ.  1.00000000
 
ion      s     py     pz     px    dxy    dyz    dz2    dxz  x2-y2    tot
    1  0.017  0.000  0.000  0.000  0.316  0.013  0.396  0.038  0.105  0.884
    2  0.000  0.000  0.000  0.000  0.000  0.000  0.000  0.000  0.000  0.001
    3  0.000  0.002  0.000  0.006  0.000  0.000  0.000  0.000  0.000  0.008
    4  0.000  0.002  0.000  0.006  0.000  0.000  0.000  0.000  0.000  0.008
tot    0.017  0.004  0.001  0.012  0.316  0.013  0.396  0.038  0.105  0.902
 
band    16 # energy    3.75220501 # occ.  1.00000000
 
ion      s     py     pz     px    dxy    dyz    dz2    dxz  x2-y2    tot
    1  0.000  0.005  0.015  0.014  0.000  0.000  0.000  0.000  0.000  0.033
    2  0.004  0.000  0.000  0.000  0.038  0.015  0.020  0.046  0.013  0.136
    3  0.002  0.007  0.145  0.020  0.001  0.000  0.000  0.000  0.000  0.175
    4  0.002  0.007  0.145  0.020  0.001  0.000  0.000  0.000  0.000  0.175
tot    0.008  0.018  0.306  0.053  0.040  0.015  0.020  0.046  0.013  0.519
 
band    17 # energy    3.88646150 # occ.  1.00000000
 
ion      s     py     pz     px    dxy    dyz    dz2    dxz  x2-y2    tot
    1  0.000  0.023  0.000  0.008  0.000  0.000  0.000  0.000  0.000  0.031
    2  0.000  0.000  0.000  0.000  0.003  0.091  0.000  0.030  0.009  0.133
    3  0.000  0.138  0.000  0.046  0.000  0.000  0.000  0.000  0.000  0.185
    4  0.000  0.138  0.000  0.046  0.000  0.000  0.000  0.000  0.000  0.185
tot    0.000  0.299  0.000  0.100  0.003  0.091  0.000  0.030  0.010  0.533
 
band    18 # energy    5.44029017 # occ.  1.00000000
 
ion      s     py     pz     px    dxy    dyz    dz2    dxz  x2-y2    tot
    1  0.000  0.000  0.000  0.000  0.005  0.211  0.000  0.070  0.015  0.302
    2  0.000  0.023  0.000  0.008  0.000  0.000  0.000  0.000  0.000  0.031
    3  0.000  0.115  0.000  0.038  0.000  0.002  0.000  0.001  0.000  0.156
    4  0.000  0.115  0.000  0.038  0.000  0.002  0.000  0.001  0.000  0.156
tot    0.000  0.252  0.000  0.084  0.005  0.216  0.000  0.072  0.015  0.645
 
band    19 # energy    5.66691610 # occ.  1.00000000
 
ion      s     py     pz     px    dxy    dyz    dz2    dxz  x2-y2    tot
    1  0.007  0.000  0.000  0.000  0.102  0.052  0.035  0.155  0.034  0.384
    2  0.000  0.004  0.006  0.011  0.000  0.000  0.000  0.000  0.000  0.021
    3  0.019  0.004  0.114  0.012  0.000  0.000  0.000  0.000  0.000  0.150
    4  0.019  0.004  0.114  0.012  0.000  0.000  0.000  0.000  0.000  0.150
tot    0.045  0.012  0.234  0.036  0.102  0.052  0.036  0.156  0.034  0.706
 
band    20 # energy    6.54074266 # occ.  0.02382068
 
ion      s     py     pz     px    dxy    dyz    dz2    dxz  x2-y2    tot
    1  0.000  0.001  0.011  0.002  0.000  0.000  0.000  0.000  0.000  0.014
    2  0.001  0.000  0.000  0.000  0.119  0.063  0.236  0.190  0.040  0.648
    3  0.000  0.000  0.004  0.000  0.003  0.001  0.003  0.002  0.001  0.015
    4  0.000  0.000  0.004  0.000  0.003  0.001  0.003  0.002  0.001  0.015
tot    0.001  0.001  0.019  0.003  0.125  0.065  0.243  0.194  0.042  0.692
 
band    21 # energy    7.38860576 # occ.  0.00000000
 
ion      s     py     pz     px    dxy    dyz    dz2    dxz  x2-y2    tot
    1  0.000  0.004  0.000  0.001  0.000  0.000  0.000  0.000  0.000  0.005
    2  0.000  0.000  0.000  0.000  0.215  0.002  0.000  0.001  0.644  0.862
    3  0.000  0.002  0.000  0.001  0.000  0.002  0.000  0.001  0.001  0.005
    4  0.000  0.002  0.000  0.001  0.000  0.002  0.000  0.001  0.001  0.005
tot    0.000  0.007  0.000  0.002  0.215  0.006  0.000  0.002  0.645  0.878
 
band    22 # energy    7.45160926 # occ.  0.00000000
 
ion      s     py     pz     px    dxy    dyz    dz2    dxz  x2-y2    tot
    1  0.000  0.000  0.001  0.000  0.000  0.000  0.000  0.000  0.000  0.001
    2  0.024  0.000  0.000  0.000  0.262  0.006  0.459  0.018  0.087  0.856
    3  0.000  0.000  0.000  0.001  0.000  0.000  0.000  0.001  0.000  0.003
    4  0.000  0.000  0.000  0.001  0.000  0.000  0.000  0.001  0.000  0.003
tot    0.024  0.001  0.001  0.002  0.263  0.006  0.459  0.019  0.088  0.863
 
band    23 # energy    7.74503180 # occ.  0.00000000
 
ion      s     py     pz     px    dxy    dyz    dz2    dxz  x2-y2    tot
    1  0.000  0.017  0.000  0.006  0.000  0.000  0.000  0.000  0.000  0.023
    2  0.000  0.000  0.000  0.000  0.004  0.553  0.000  0.184  0.012  0.754
    3  0.000  0.019  0.000  0.006  0.000  0.005  0.000  0.002  0.000  0.031
    4  0.000  0.019  0.000  0.006  0.000  0.005  0.000  0.002  0.000  0.031
tot    0.000  0.054  0.000  0.018  0.004  0.562  0.000  0.187  0.013  0.839
 
band    24 # energy    8.01057552 # occ.  0.00000000
 
ion      s     py     pz     px    dxy    dyz    dz2    dxz  x2-y2    tot
    1  0.215  0.000  0.000  0.000  0.000  0.002  0.005  0.005  0.000  0.227
    2  0.000  0.004  0.006  0.011  0.000  0.000  0.000  0.000  0.000  0.020
    3  0.020  0.010  0.008  0.029  0.006  0.004  0.000  0.013  0.002  0.092
    4  0.020  0.010  0.008  0.029  0.006  0.004  0.000  0.013  0.002  0.092
tot    0.255  0.023  0.021  0.069  0.013  0.010  0.005  0.030  0.004  0.432
 
# of k-points:   40         # of bands:   24         # of ions:    4

 k-point     1 :   -0.50000000 0.00000000 0.50000000     weight = 0.02500000

band     1 # energy  -44.23221726 # occ.  1.00000000
 
ion      s     py     pz     px    dxy    dyz    dz2    dxz  x2-y2    tot
    1  0.000  0.000  0.000  0.000  0.000  0.000  0.000  0.000  0.000  0.000
    2  0.000  0.247  0.000  0.748  0.000  0.000  0.000  0.000  0.000  0.995
    3  0.000  0.000  0.000  0.000  0.000  0.000  0.000  0.000  0.000  0.000
    4  0.000  0.000  0.000  0.000  0.000  0.000  0.000  0.000  0.000  0.000
tot    0.000  0.247  0.000  0.748  0.000  0.000  0.000  0.000  0.000  0.995
 
band     2 # energy  -44.23148879 # occ.  1.00000000
 
ion      s     py     pz     px    dxy    dyz    dz2    dxz  x2-y2    tot
    1  0.000  0.000  0.000  0.000  0.000  0.000  0.000  0.000  0.000  0.000
    2  0.000  0.748  0.000  0.247  0.000  0.000  0.000  0.000  0.000  0.995
    3  0.000  0.000  0.000  0.000  0.000  0.000  0.000  0.000  0.000  0.000
    4  0.000  0.000  0.000  0.000  0.000  0.000  0.000  0.000  0.000  0.000
tot    0.000  0.748  0.000  0.247  0.000  0.000  0.000  0.000  0.000  0.995
 
band     3 # energy  -44.22814146 # occ.  1.00000000
 
ion      s     py     pz     px    dxy    dyz    dz2    dxz  x2-y2    tot
    1  0.000  0.000  0.000  0.000  0.000  0.000  0.000  0.000  0.000  0.000
    2  0.000  0.000  0.995  0.000  0.000  0.000  0.000  0.000  0.000  0.995
    3  0.000  0.000  0.000  0.000  0.000  0.000  0.000  0.000  0.000  0.000
    4  0.000  0.000  0.000  0.000  0.000  0.000  0.000  0.000  0.000  0.000
tot    0.000  0.000  0.995  0.000  0.000  0.000  0.000  0.000  0.000  0.995
 
band     4 # energy  -39.85037932 # occ.  1.00000000
 
ion      s     py     pz     px    dxy    dyz    dz2    dxz  x2-y2    tot
    1  0.000  0.000  0.995  0.000  0.000  0.000  0.000  0.000  0.000  0.995
    2  0.000  0.000  0.000  0.000  0.000  0.000  0.000  0.000  0.000  0.000
    3  0.000  0.000  0.000  0.000  0.000  0.000  0.000  0.000  0.000  0.000
    4  0.000  0.000  0.000  0.000  0.000  0.000  0.000  0.000  0.000  0.000
tot    0.000  0.000  0.995  0.000  0.000  0.000  0.000  0.000  0.000  0.995
 
band     5 # energy  -39.84504231 # occ.  1.00000000
 
ion      s     py     pz     px    dxy    dyz    dz2    dxz  x2-y2    tot
    1  0.000  0.247  0.000  0.749  0.000  0.000  0.000  0.000  0.000  0.995
    2  0.000  0.000  0.000  0.000  0.000  0.000  0.000  0.000  0.000  0.000
    3  0.000  0.000  0.000  0.000  0.000  0.000  0.000  0.000  0.000  0.000
    4  0.000  0.000  0.000  0.000  0.000  0.000  0.000  0.000  0.000  0.000
tot    0.000  0.247  0.000  0.749  0.000  0.000  0.000  0.000  0.000  0.995
 
band     6 # energy  -39.84395201 # occ.  1.00000000
 
ion      s     py     pz     px    dxy    dyz    dz2    dxz  x2-y2    tot
    1  0.000  0.749  0.000  0.247  0.000  0.000  0.000  0.000  0.000  0.995
    2  0.000  0.000  0.000  0.000  0.000  0.000  0.000  0.000  0.000  0.000
    3  0.000  0.000  0.000  0.000  0.000  0.000  0.000  0.000  0.000  0.000
    4  0.000  0.000  0.000  0.000  0.000  0.000  0.000  0.000  0.000  0.000
tot    0.000  0.749  0.000  0.247  0.000  0.000  0.000  0.000  0.000  0.996
 
band     7 # energy   -4.69910558 # occ.  1.00000000
 
ion      s     py     pz     px    dxy    dyz    dz2    dxz  x2-y2    tot
    1  0.000  0.001  0.001  0.004  0.000  0.000  0.000  0.000  0.000  0.006
    2  0.004  0.000  0.000  0.000  0.004  0.002  0.000  0.007  0.001  0.019
    3  0.329  0.000  0.000  0.000  0.000  0.000  0.000  0.000  0.000  0.330
    4  0.329  0.000  0.000  0.000  0.000  0.000  0.000  0.000  0.000  0.330
tot    0.663  0.001  0.001  0.004  0.004  0.002  0.000  0.007  0.001  0.684
 
band     8 # energy   -4.67432676 # occ.  1.00000000
 
ion      s     py     pz     px    dxy    dyz    dz2    dxz  x2-y2    tot
    1  0.003  0.000  0.000  0.000  0.002  0.001  0.000  0.004  0.001  0.012
    2  0.000  0.002  0.001  0.005  0.000  0.000  0.000  0.000  0.000  0.008
    3  0.332  0.000  0.000  0.000  0.000  0.000  0.000  0.000  0.000  0.332
    4  0.332  0.000  0.000  0.000  0.000  0.000  0.000  0.000  0.000  0.332
tot    0.667  0.002  0.001  0.005  0.002  0.001  0.000  0.004  0.001  0.684
 
band     9 # energy    0.88156485 # occ.  1.00000000
 
ion      s     py     pz     px    dxy    dyz    dz2    dxz  x2-y2    tot
    1  0.000  0.002  0.009  0.006  0.000  0.000  0.000  0.000  0.000  0.018
    2  0.084  0.000  0.000  0.000  0.027  0.004  0.007  0.011  0.009  0.143
    3  0.000  0.025  0.020  0.076  0.000  0.000  0.000  0.000  0.000  0.121
    4  0.000  0.025  0.020  0.076  0.000  0.000  0.000  0.000  0.000  0.121
tot    0.085  0.052  0.048  0.157  0.027  0.004  0.007  0.012  0.009  0.402
 
band    10 # energy    1.15343509 # occ.  1.00000000
 
ion      s     py     pz     px    dxy    dyz    dz2    dxz  x2-y2    tot
    1  0.064  0.000  0.000  0.000  0.006  0.001  0.002  0.002  0.002  0.077
    2  0.000  0.003  0.014  0.010  0.000  0.000  0.000  0.000  0.000  0.027
    3  0.000  0.028  0.023  0.084  0.000  0.000  0.000  0.000  0.000  0.136
    4  0.000  0.028  0.023  0.084  0.000  0.000  0.000  0.000  0.000  0.136
tot    0.064  0.059  0.061  0.178  0.006  0.001  0.002  0.002  0.002  0.375
 
band    11 # energy    2.60237755 # occ.  1.00000000
 
ion      s     py     pz     px    dxy    dyz    dz2    dxz  x2-y2    tot
    1  0.000  0.001  0.005  0.004  0.000  0.000  0.000  0.000  0.000  0.010
    2  0.003  0.000  0.000  0.000  0.185  0.041  0.160  0.123  0.062  0.575
    3  0.000  0.002  0.060  0.007  0.001  0.000  0.000  0.000  0.000  0.071
    4  0.000  0.002  0.060  0.007  0.001  0.000  0.000  0.000  0.000  0.071
tot    0.004  0.006  0.125  0.019  0.187  0.041  0.160  0.123  0.062  0.728
 
band    12 # energy    2.63148192 # occ.  1.00000000
 
ion      s     py     pz     px    dxy    dyz    dz2    dxz  x2-y2    tot
    1  0.000  0.004  0.000  0.001  0.000  0.000  0.000  0.000  0.000  0.006
    2  0.000  0.000  0.000  0.000  0.012  0.431  0.000  0.144  0.036  0.623
    3  0.000  0.051  0.000  0.017  0.000  0.000  0.000  0.000  0.000  0.069
    4  0.000  0.051  0.000  0.017  0.000  0.000  0.000  0.000  0.000  0.069
tot    0.000  0.106  0.000  0.035  0.012  0.431  0.000  0.144  0.037  0.766
 
band    13 # energy    3.24510953 # occ.  1.00000000
 
ion      s     py     pz     px    dxy    dyz    dz2    dxz  x2-y2    tot
    1  0.000  0.000  0.001  0.001  0.000  0.000  0.000  0.000  0.000  0.003
    2  0.001  0.000  0.000  0.000  0.047  0.118  0.302  0.355  0.016  0.840
    3  0.001  0.000  0.009  0.000  0.000  0.000  0.001  0.000  0.000  0.012
    4  0.001  0.000  0.009  0.000  0.000  0.000  0.001  0.000  0.000  0.012
tot    0.004  0.000  0.019  0.001  0.048  0.119  0.303  0.356  0.016  0.867
 
band    14 # energy    3.47744572 # occ.  1.00000000
 
ion      s     py     pz     px    dxy    dyz    dz2    dxz  x2-y2    tot
    1  0.000  0.000  0.000  0.000  0.000  0.000  0.000  0.000  0.000  0.000
    2  0.000  0.000  0.000  0.000  0.214  0.053  0.000  0.018  0.643  0.927
    3  0.000  0.000  0.000  0.000  0.000  0.000  0.000  0.000  0.000  0.000
    4  0.000  0.000  0.000  0.000  0.000  0.000  0.000  0.000  0.000  0.000
tot    0.000  0.000  0.000  0.000  0.214  0.053  0.000  0.018  0.643  0.927
 
band    15 # energy    3.61030806 # occ.  1.00000000
 
ion      s     py     pz     px    dxy    dyz    dz2    dxz  x2-y2    tot
    1  0.000  0.000  0.000  0.000  0.000  0.000  0.000  0.000  0.000  0.001
    2  0.017  0.000  0.000  0.000  0.316  0.013  0.396  0.038  0.105  0.884
    3  0.000  0.002  0.000  0.006  0.000  0.000  0.000  0.000  0.000  0.008
    4  0.000  0.002  0.000  0.006  0.000  0.000  0.000  0.000  0.000  0.008
tot    0.017  0.004  0.001  0.012  0.316  0.013  0.396  0.038  0.105  0.902
 
band    16 # energy    3.75220500 # occ.  1.00000000
 
ion      s     py     pz     px    dxy    dyz    dz2    dxz  x2-y2    tot
    1  0.004  0.000  0.000  0.000  0.038  0.015  0.020  0.046  0.013  0.136
    2  0.000  0.005  0.015  0.014  0.000  0.000  0.000  0.000  0.000  0.033
    3  0.002  0.007  0.145  0.020  0.001  0.000  0.000  0.000  0.000  0.175
    4  0.002  0.007  0.145  0.020  0.001  0.000  0.000  0.000  0.000  0.175
tot    0.008  0.018  0.306  0.053  0.040  0.015  0.020  0.046  0.013  0.519
 
band    17 # energy    3.88646150 # occ.  1.00000000
 
ion      s     py     pz     px    dxy    dyz    dz2    dxz  x2-y2    tot
    1  0.000  0.000  0.000  0.000  0.003  0.091  0.000  0.030  0.009  0.133
    2  0.000  0.023  0.000  0.008  0.000  0.000  0.000  0.000  0.000  0.031
    3  0.000  0.138  0.000  0.046  0.000  0.000  0.000  0.000  0.000  0.185
    4  0.000  0.138  0.000  0.046  0.000  0.000  0.000  0.000  0.000  0.185
tot    0.000  0.299  0.000  0.100  0.003  0.091  0.000  0.030  0.010  0.533
 
band    18 # energy    5.44029017 # occ.  1.00000000
 
ion      s     py     pz     px    dxy    dyz    dz2    dxz  x2-y2    tot
    1  0.000  0.023  0.000  0.008  0.000  0.000  0.000  0.000  0.000  0.031
    2  0.000  0.000  0.000  0.000  0.005  0.211  0.000  0.070  0.015  0.302
    3  0.000  0.115  0.000  0.038  0.000  0.002  0.000  0.001  0.000  0.156
    4  0.000  0.115  0.000  0.038  0.000  0.002  0.000  0.001  0.000  0.156
tot    0.000  0.252  0.000  0.084  0.005  0.216  0.000  0.072  0.015  0.645
 
band    19 # energy    5.66691609 # occ.  1.00000000
 
ion      s     py     pz     px    dxy    dyz    dz2    dxz  x2-y2    tot
    1  0.000  0.004  0.006  0.011  0.000  0.000  0.000  0.000  0.000  0.021
    2  0.007  0.000  0.000  0.000  0.102  0.052  0.035  0.155  0.034  0.384
    3  0.019  0.004  0.114  0.012  0.000  0.000  0.000  0.000  0.000  0.150
    4  0.019  0.004  0.114  0.012  0.000  0.000  0.000  0.000  0.000  0.150
tot    0.045  0.012  0.234  0.036  0.102  0.052  0.036  0.156  0.034  0.706
 
band    20 # energy    6.54074267 # occ.  0.02382066
 
ion      s     py     pz     px    dxy    dyz    dz2    dxz  x2-y2    tot
    1  0.001  0.000  0.000  0.000  0.119  0.063  0.236  0.190  0.040  0.648
    2  0.000  0.001  0.011  0.002  0.000  0.000  0.000  0.000  0.000  0.014
    3  0.000  0.000  0.004  0.000  0.003  0.001  0.003  0.002  0.001  0.015
    4  0.000  0.000  0.004  0.000  0.003  0.001  0.003  0.002  0.001  0.015
tot    0.001  0.001  0.019  0.003  0.125  0.065  0.243  0.194  0.042  0.692
 
band    21 # energy    7.38860576 # occ.  0.00000000
 
ion      s     py     pz     px    dxy    dyz    dz2    dxz  x2-y2    tot
    1  0.000  0.000  0.000  0.000  0.215  0.002  0.000  0.001  0.644  0.862
    2  0.000  0.004  0.000  0.001  0.000  0.000  0.000  0.000  0.000  0.005
    3  0.000  0.002  0.000  0.001  0.000  0.002  0.000  0.001  0.001  0.005
    4  0.000  0.002  0.000  0.001  0.000  0.002  0.000  0.001  0.001  0.005
tot    0.000  0.007  0.000  0.002  0.215  0.006  0.000  0.002  0.645  0.878
 
band    22 # energy    7.45160924 # occ.  0.00000000
 
ion      s     py     pz     px    dxy    dyz    dz2    dxz  x2-y2    tot
    1  0.024  0.000  0.000  0.000  0.262  0.006  0.459  0.018  0.087  0.856
    2  0.000  0.000  0.001  0.000  0.000  0.000  0.000  0.000  0.000  0.001
    3  0.000  0.000  0.000  0.001  0.000  0.000  0.000  0.001  0.000  0.003
    4  0.000  0.000  0.000  0.001  0.000  0.000  0.000  0.001  0.000  0.003
tot    0.024  0.001  0.001  0.002  0.263  0.006  0.459  0.019  0.088  0.863
 
band    23 # energy    7.74503181 # occ.  0.00000000
 
ion      s     py     pz     px    dxy    dyz    dz2    dxz  x2-y2    tot
    1  0.000  0.000  0.000  0.000  0.004  0.553  0.000  0.184  0.012  0.754
    2  0.000  0.017  0.000  0.006  0.000  0.000  0.000  0.000  0.000  0.023
    3  0.000  0.019  0.000  0.006  0.000  0.005  0.000  0.002  0.000  0.031
    4  0.000  0.019  0.000  0.006  0.000  0.005  0.000  0.002  0.000  0.031
tot    0.000  0.054  0.000  0.018  0.004  0.562  0.000  0.187  0.013  0.839
 
band    24 # energy    8.01136534 # occ.  0.00000000
 
ion      s     py     pz     px    dxy    dyz    dz2    dxz  x2-y2    tot
    1  0.000  0.003  0.006  0.011  0.001  0.001  0.000  0.002  0.000  0.024
    2  0.213  0.000  0.000  0.000  0.000  0.002  0.005  0.005  0.000  0.225
    3  0.021  0.010  0.008  0.029  0.006  0.004  0.000  0.012  0.002  0.092
    4  0.021  0.010  0.008  0.029  0.006  0.004  0.000  0.013  0.002  0.092
tot    0.254  0.023  0.021  0.069  0.014  0.011  0.005  0.032  0.005  0.434
 

 k-point     2 :   -0.47368421 0.00000000 0.50000000     weight = 0.02500000

band     1 # energy  -44.23220567 # occ.  1.00000000
 
ion      s     py     pz     px    dxy    dyz    dz2    dxz  x2-y2    tot
    1  0.000  0.000  0.000  0.000  0.000  0.000  0.000  0.000  0.000  0.000
    2  0.000  0.247  0.000  0.748  0.000  0.000  0.000  0.000  0.000  0.995
    3  0.000  0.000  0.000  0.000  0.000  0.000  0.000  0.000  0.000  0.000
    4  0.000  0.000  0.000  0.000  0.000  0.000  0.000  0.000  0.000  0.000
tot    0.000  0.247  0.000  0.748  0.000  0.000  0.000  0.000  0.000  0.995
 
band     2 # energy  -44.23148793 # occ.  1.00000000
 
ion      s     py     pz     px    dxy    dyz    dz2    dxz  x2-y2    tot
    1  0.000  0.000  0.000  0.000  0.000  0.000  0.000  0.000  0.000  0.000
    2  0.000  0.748  0.000  0.247  0.000  0.000  0.000  0.000  0.000  0.995
    3  0.000  0.000  0.000  0.000  0.000  0.000  0.000  0.000  0.000  0.000
    4  0.000  0.000  0.000  0.000  0.000  0.000  0.000  0.000  0.000  0.000
tot    0.000  0.748  0.000  0.247  0.000  0.000  0.000  0.000  0.000  0.995
 
band     3 # energy  -44.22814933 # occ.  1.00000000
 
ion      s     py     pz     px    dxy    dyz    dz2    dxz  x2-y2    tot
    1  0.000  0.000  0.000  0.000  0.000  0.000  0.000  0.000  0.000  0.000
    2  0.000  0.000  0.995  0.000  0.000  0.000  0.000  0.000  0.000  0.995
    3  0.000  0.000  0.000  0.000  0.000  0.000  0.000  0.000  0.000  0.000
    4  0.000  0.000  0.000  0.000  0.000  0.000  0.000  0.000  0.000  0.000
tot    0.000  0.000  0.995  0.000  0.000  0.000  0.000  0.000  0.000  0.995
 
band     4 # energy  -39.85038794 # occ.  1.00000000
 
ion      s     py     pz     px    dxy    dyz    dz2    dxz  x2-y2    tot
    1  0.000  0.000  0.995  0.000  0.000  0.000  0.000  0.000  0.000  0.995
    2  0.000  0.000  0.000  0.000  0.000  0.000  0.000  0.000  0.000  0.000
    3  0.000  0.000  0.000  0.000  0.000  0.000  0.000  0.000  0.000  0.000
    4  0.000  0.000  0.000  0.000  0.000  0.000  0.000  0.000  0.000  0.000
tot    0.000  0.000  0.995  0.000  0.000  0.000  0.000  0.000  0.000  0.995
 
band     5 # energy  -39.84502470 # occ.  1.00000000
 
ion      s     py     pz     px    dxy    dyz    dz2    dxz  x2-y2    tot
    1  0.000  0.247  0.000  0.749  0.000  0.000  0.000  0.000  0.000  0.995
    2  0.000  0.000  0.000  0.000  0.000  0.000  0.000  0.000  0.000  0.000
    3  0.000  0.000  0.000  0.000  0.000  0.000  0.000  0.000  0.000  0.000
    4  0.000  0.000  0.000  0.000  0.000  0.000  0.000  0.000  0.000  0.000
tot    0.000  0.247  0.000  0.749  0.000  0.000  0.000  0.000  0.000  0.995
 
band     6 # energy  -39.84395000 # occ.  1.00000000
 
ion      s     py     pz     px    dxy    dyz    dz2    dxz  x2-y2    tot
    1  0.000  0.749  0.000  0.247  0.000  0.000  0.000  0.000  0.000  0.995
    2  0.000  0.000  0.000  0.000  0.000  0.000  0.000  0.000  0.000  0.000
    3  0.000  0.000  0.000  0.000  0.000  0.000  0.000  0.000  0.000  0.000
    4  0.000  0.000  0.000  0.000  0.000  0.000  0.000  0.000  0.000  0.000
tot    0.000  0.749  0.000  0.247  0.000  0.000  0.000  0.000  0.000  0.996
 
band     7 # energy   -4.70555975 # occ.  1.00000000
 
ion      s     py     pz     px    dxy    dyz    dz2    dxz  x2-y2    tot
    1  0.000  0.001  0.001  0.004  0.000  0.000  0.000  0.000  0.000  0.006
    2  0.004  0.000  0.000  0.000  0.004  0.002  0.000  0.007  0.001  0.019
    3  0.329  0.000  0.000  0.000  0.000  0.000  0.000  0.000  0.000  0.329
    4  0.329  0.000  0.000  0.000  0.000  0.000  0.000  0.000  0.000  0.329
tot    0.662  0.001  0.001  0.004  0.004  0.002  0.000  0.007  0.001  0.683
 
band     8 # energy   -4.68130202 # occ.  1.00000000
 
ion      s     py     pz     px    dxy    dyz    dz2    dxz  x2-y2    tot
    1  0.003  0.000  0.000  0.000  0.002  0.001  0.000  0.004  0.001  0.012
    2  0.000  0.002  0.001  0.005  0.000  0.000  0.000  0.000  0.000  0.008
    3  0.332  0.000  0.000  0.000  0.000  0.000  0.000  0.000  0.000  0.332
    4  0.332  0.000  0.000  0.000  0.000  0.000  0.000  0.000  0.000  0.332
tot    0.666  0.002  0.001  0.005  0.002  0.001  0.000  0.004  0.001  0.683
 
band     9 # energy    0.89670316 # occ.  1.00000000
 
ion      s     py     pz     px    dxy    dyz    dz2    dxz  x2-y2    tot
    1  0.000  0.002  0.009  0.006  0.000  0.000  0.000  0.000  0.000  0.018
    2  0.084  0.000  0.000  0.000  0.027  0.004  0.007  0.011  0.009  0.143
    3  0.001  0.025  0.020  0.075  0.000  0.000  0.000  0.000  0.000  0.121
    4  0.001  0.025  0.020  0.075  0.000  0.000  0.000  0.000  0.000  0.121
tot    0.086  0.052  0.049  0.157  0.027  0.004  0.007  0.012  0.009  0.403
 
band    10 # energy    1.16383580 # occ.  1.00000000
 
ion      s     py     pz     px    dxy    dyz    dz2    dxz  x2-y2    tot
    1  0.064  0.000  0.000  0.000  0.006  0.001  0.002  0.002  0.002  0.076
    2  0.000  0.003  0.014  0.010  0.001  0.000  0.000  0.001  0.000  0.031
    3  0.000  0.028  0.024  0.084  0.000  0.000  0.000  0.000  0.000  0.136
    4  0.000  0.028  0.024  0.084  0.000  0.000  0.000  0.000  0.000  0.136
tot    0.065  0.059  0.061  0.177  0.008  0.001  0.002  0.003  0.003  0.378
 
band    11 # energy    2.60894751 # occ.  1.00000000
 
ion      s     py     pz     px    dxy    dyz    dz2    dxz  x2-y2    tot
    1  0.000  0.001  0.005  0.004  0.000  0.000  0.000  0.000  0.000  0.011
    2  0.003  0.000  0.000  0.000  0.181  0.041  0.166  0.122  0.060  0.573
    3  0.000  0.003  0.060  0.008  0.001  0.000  0.000  0.000  0.000  0.071
    4  0.000  0.003  0.060  0.008  0.001  0.000  0.000  0.000  0.000  0.071
tot    0.004  0.006  0.125  0.019  0.183  0.041  0.166  0.122  0.061  0.726
 
band    12 # energy    2.63326667 # occ.  1.00000000
 
ion      s     py     pz     px    dxy    dyz    dz2    dxz  x2-y2    tot
    1  0.000  0.004  0.000  0.001  0.000  0.000  0.000  0.000  0.000  0.006
    2  0.000  0.000  0.000  0.000  0.012  0.431  0.000  0.144  0.037  0.623
    3  0.000  0.051  0.000  0.017  0.000  0.000  0.000  0.000  0.000  0.069
    4  0.000  0.051  0.000  0.017  0.000  0.000  0.000  0.000  0.000  0.069
tot    0.000  0.106  0.000  0.035  0.013  0.431  0.000  0.144  0.038  0.766
 
band    13 # energy    3.24559436 # occ.  1.00000000
 
ion      s     py     pz     px    dxy    dyz    dz2    dxz  x2-y2    tot
    1  0.000  0.001  0.001  0.002  0.000  0.000  0.000  0.000  0.000  0.003
    2  0.001  0.000  0.000  0.000  0.045  0.118  0.302  0.355  0.015  0.836
    3  0.001  0.000  0.010  0.000  0.000  0.000  0.001  0.000  0.000  0.013
    4  0.001  0.000  0.010  0.000  0.000  0.000  0.001  0.000  0.000  0.013
tot    0.003  0.001  0.020  0.002  0.046  0.119  0.303  0.356  0.015  0.865
 
band    14 # energy    3.46823289 # occ.  1.00000000
 
ion      s     py     pz     px    dxy    dyz    dz2    dxz  x2-y2    tot
    1  0.000  0.000  0.000  0.000  0.000  0.001  0.000  0.000  0.000  0.002
    2  0.000  0.000  0.000  0.000  0.210  0.053  0.000  0.018  0.629  0.910
    3  0.000  0.003  0.000  0.001  0.000  0.000  0.000  0.000  0.000  0.004
    4  0.000  0.003  0.000  0.001  0.000  0.000  0.000  0.000  0.000  0.004
tot    0.000  0.006  0.000  0.002  0.210  0.054  0.000  0.018  0.630  0.919
 
band    15 # energy    3.58218377 # occ.  1.00000000
 
ion      s     py     pz     px    dxy    dyz    dz2    dxz  x2-y2    tot
    1  0.001  0.000  0.000  0.000  0.005  0.002  0.003  0.007  0.002  0.020
    2  0.016  0.000  0.002  0.001  0.281  0.012  0.318  0.036  0.094  0.761
    3  0.001  0.003  0.020  0.008  0.000  0.000  0.000  0.000  0.000  0.032
    4  0.001  0.003  0.020  0.008  0.000  0.000  0.000  0.000  0.000  0.032
tot    0.018  0.006  0.042  0.018  0.286  0.015  0.321  0.044  0.095  0.844
 
band    16 # energy    3.78366286 # occ.  1.00000000
 
ion      s     py     pz     px    dxy    dyz    dz2    dxz  x2-y2    tot
    1  0.003  0.000  0.000  0.000  0.032  0.013  0.018  0.038  0.011  0.116
    2  0.001  0.004  0.013  0.012  0.041  0.001  0.071  0.002  0.014  0.158
    3  0.001  0.006  0.125  0.018  0.001  0.000  0.000  0.000  0.000  0.151
    4  0.001  0.006  0.125  0.018  0.001  0.000  0.000  0.000  0.000  0.151
tot    0.007  0.016  0.263  0.047  0.074  0.013  0.089  0.040  0.025  0.576
 
band    17 # energy    3.89930812 # occ.  1.00000000
 
ion      s     py     pz     px    dxy    dyz    dz2    dxz  x2-y2    tot
    1  0.000  0.000  0.000  0.000  0.003  0.090  0.000  0.030  0.010  0.132
    2  0.000  0.022  0.000  0.007  0.004  0.001  0.000  0.000  0.012  0.047
    3  0.000  0.136  0.000  0.045  0.000  0.000  0.000  0.000  0.000  0.181
    4  0.000  0.136  0.000  0.045  0.000  0.000  0.000  0.000  0.000  0.181
tot    0.000  0.294  0.000  0.098  0.007  0.091  0.000  0.030  0.022  0.542
 
band    18 # energy    5.44074896 # occ.  1.00000000
 
ion      s     py     pz     px    dxy    dyz    dz2    dxz  x2-y2    tot
    1  0.000  0.023  0.000  0.008  0.000  0.000  0.000  0.000  0.001  0.032
    2  0.000  0.000  0.000  0.000  0.005  0.210  0.000  0.070  0.016  0.301
    3  0.000  0.115  0.000  0.038  0.000  0.002  0.000  0.001  0.000  0.156
    4  0.000  0.115  0.000  0.038  0.000  0.002  0.000  0.001  0.000  0.156
tot    0.000  0.252  0.000  0.084  0.006  0.215  0.000  0.072  0.017  0.645
 
band    19 # energy    5.64497688 # occ.  1.00000000
 
ion      s     py     pz     px    dxy    dyz    dz2    dxz  x2-y2    tot
    1  0.001  0.003  0.006  0.010  0.000  0.000  0.003  0.001  0.000  0.025
    2  0.006  0.000  0.000  0.000  0.099  0.052  0.036  0.155  0.033  0.382
    3  0.019  0.004  0.112  0.013  0.000  0.000  0.000  0.000  0.000  0.149
    4  0.019  0.004  0.112  0.013  0.000  0.000  0.000  0.000  0.000  0.149
tot    0.045  0.012  0.230  0.036  0.100  0.052  0.039  0.156  0.033  0.705
 
band    20 # energy    6.54636419 # occ.  0.01619539
 
ion      s     py     pz     px    dxy    dyz    dz2    dxz  x2-y2    tot
    1  0.001  0.000  0.000  0.000  0.122  0.063  0.230  0.188  0.041  0.644
    2  0.001  0.001  0.010  0.002  0.001  0.000  0.000  0.001  0.000  0.016
    3  0.001  0.000  0.005  0.000  0.003  0.001  0.003  0.002  0.001  0.016
    4  0.001  0.000  0.005  0.000  0.003  0.001  0.003  0.002  0.001  0.016
tot    0.003  0.001  0.020  0.003  0.129  0.064  0.236  0.192  0.043  0.692
 
band    21 # energy    7.39122650 # occ.  0.00000000
 
ion      s     py     pz     px    dxy    dyz    dz2    dxz  x2-y2    tot
    1  0.000  0.000  0.000  0.000  0.215  0.002  0.000  0.001  0.644  0.861
    2  0.000  0.004  0.000  0.001  0.000  0.000  0.000  0.000  0.000  0.005
    3  0.000  0.002  0.000  0.001  0.000  0.002  0.000  0.001  0.001  0.006
    4  0.000  0.002  0.000  0.001  0.000  0.002  0.000  0.001  0.001  0.006
tot    0.000  0.008  0.000  0.003  0.215  0.006  0.000  0.002  0.645  0.878
 
band    22 # energy    7.44991055 # occ.  0.00000000
 
ion      s     py     pz     px    dxy    dyz    dz2    dxz  x2-y2    tot
    1  0.021  0.000  0.000  0.000  0.265  0.004  0.456  0.012  0.088  0.847
    2  0.002  0.000  0.001  0.000  0.000  0.000  0.000  0.000  0.000  0.004
    3  0.000  0.000  0.001  0.001  0.000  0.000  0.000  0.001  0.000  0.005
    4  0.000  0.000  0.001  0.001  0.000  0.000  0.000  0.001  0.000  0.005
tot    0.024  0.001  0.003  0.003  0.266  0.005  0.457  0.014  0.089  0.861
 
band    23 # energy    7.74524325 # occ.  0.00000000
 
ion      s     py     pz     px    dxy    dyz    dz2    dxz  x2-y2    tot
    1  0.000  0.000  0.000  0.000  0.004  0.553  0.000  0.184  0.011  0.753
    2  0.000  0.017  0.000  0.006  0.000  0.000  0.000  0.000  0.000  0.023
    3  0.000  0.019  0.000  0.006  0.000  0.005  0.000  0.002  0.000  0.032
    4  0.000  0.019  0.000  0.006  0.000  0.005  0.000  0.002  0.000  0.032
tot    0.000  0.055  0.000  0.018  0.004  0.562  0.000  0.187  0.012  0.839
 
band    24 # energy    7.95142704 # occ.  0.00000000
 
ion      s     py     pz     px    dxy    dyz    dz2    dxz  x2-y2    tot
    1  0.011  0.003  0.004  0.008  0.024  0.041  0.021  0.123  0.008  0.243
    2  0.151  0.001  0.000  0.003  0.000  0.001  0.004  0.003  0.000  0.162
    3  0.024  0.006  0.006  0.019  0.004  0.003  0.000  0.010  0.001  0.075
    4  0.024  0.006  0.006  0.019  0.004  0.003  0.000  0.010  0.001  0.075
tot    0.210  0.016  0.017  0.049  0.033  0.048  0.025  0.145  0.011  0.555
 

 k-point     3 :   -0.44736842 0.00000000 0.50000000     weight = 0.02500000

band     1 # energy  -44.23218324 # occ.  1.00000000
 
ion      s     py     pz     px    dxy    dyz    dz2    dxz  x2-y2    tot
    1  0.000  0.000  0.000  0.000  0.000  0.000  0.000  0.000  0.000  0.000
    2  0.000  0.247  0.000  0.748  0.000  0.000  0.000  0.000  0.000  0.995
    3  0.000  0.000  0.000  0.000  0.000  0.000  0.000  0.000  0.000  0.000
    4  0.000  0.000  0.000  0.000  0.000  0.000  0.000  0.000  0.000  0.000
tot    0.000  0.247  0.000  0.748  0.000  0.000  0.000  0.000  0.000  0.995
 
band     2 # energy  -44.23148622 # occ.  1.00000000
 
ion      s     py     pz     px    dxy    dyz    dz2    dxz  x2-y2    tot
    1  0.000  0.000  0.000  0.000  0.000  0.000  0.000  0.000  0.000  0.000
    2  0.000  0.749  0.000  0.247  0.000  0.000  0.000  0.000  0.000  0.995
    3  0.000  0.000  0.000  0.000  0.000  0.000  0.000  0.000  0.000  0.000
    4  0.000  0.000  0.000  0.000  0.000  0.000  0.000  0.000  0.000  0.000
tot    0.000  0.749  0.000  0.247  0.000  0.000  0.000  0.000  0.000  0.995
 
band     3 # energy  -44.22815468 # occ.  1.00000000
 
ion      s     py     pz     px    dxy    dyz    dz2    dxz  x2-y2    tot
    1  0.000  0.000  0.000  0.000  0.000  0.000  0.000  0.000  0.000  0.000
    2  0.000  0.000  0.995  0.000  0.000  0.000  0.000  0.000  0.000  0.995
    3  0.000  0.000  0.000  0.000  0.000  0.000  0.000  0.000  0.000  0.000
    4  0.000  0.000  0.000  0.000  0.000  0.000  0.000  0.000  0.000  0.000
tot    0.000  0.000  0.995  0.000  0.000  0.000  0.000  0.000  0.000  0.995
 
band     4 # energy  -39.85039584 # occ.  1.00000000
 
ion      s     py     pz     px    dxy    dyz    dz2    dxz  x2-y2    tot
    1  0.000  0.000  0.995  0.000  0.000  0.000  0.000  0.000  0.000  0.995
    2  0.000  0.000  0.000  0.000  0.000  0.000  0.000  0.000  0.000  0.000
    3  0.000  0.000  0.000  0.000  0.000  0.000  0.000  0.000  0.000  0.000
    4  0.000  0.000  0.000  0.000  0.000  0.000  0.000  0.000  0.000  0.000
tot    0.000  0.000  0.995  0.000  0.000  0.000  0.000  0.000  0.000  0.995
 
band     5 # energy  -39.84498960 # occ.  1.00000000
 
ion      s     py     pz     px    dxy    dyz    dz2    dxz  x2-y2    tot
    1  0.000  0.247  0.000  0.749  0.000  0.000  0.000  0.000  0.000  0.995
    2  0.000  0.000  0.000  0.000  0.000  0.000  0.000  0.000  0.000  0.000
    3  0.000  0.000  0.000  0.000  0.000  0.000  0.000  0.000  0.000  0.000
    4  0.000  0.000  0.000  0.000  0.000  0.000  0.000  0.000  0.000  0.000
tot    0.000  0.247  0.000  0.749  0.000  0.000  0.000  0.000  0.000  0.995
 
band     6 # energy  -39.84394632 # occ.  1.00000000
 
ion      s     py     pz     px    dxy    dyz    dz2    dxz  x2-y2    tot
    1  0.000  0.749  0.000  0.247  0.000  0.000  0.000  0.000  0.000  0.995
    2  0.000  0.000  0.000  0.000  0.000  0.000  0.000  0.000  0.000  0.000
    3  0.000  0.000  0.000  0.000  0.000  0.000  0.000  0.000  0.000  0.000
    4  0.000  0.000  0.000  0.000  0.000  0.000  0.000  0.000  0.000  0.000
tot    0.000  0.749  0.000  0.247  0.000  0.000  0.000  0.000  0.000  0.996
 
band     7 # energy   -4.72460179 # occ.  1.00000000
 
ion      s     py     pz     px    dxy    dyz    dz2    dxz  x2-y2    tot
    1  0.000  0.001  0.001  0.004  0.000  0.000  0.000  0.000  0.000  0.007
    2  0.004  0.000  0.000  0.000  0.003  0.002  0.000  0.007  0.001  0.019
    3  0.328  0.000  0.000  0.000  0.000  0.000  0.000  0.000  0.000  0.328
    4  0.328  0.000  0.000  0.000  0.000  0.000  0.000  0.000  0.000  0.328
tot    0.660  0.001  0.001  0.004  0.004  0.002  0.000  0.007  0.001  0.681
 
band     8 # energy   -4.70180806 # occ.  1.00000000
 
ion      s     py     pz     px    dxy    dyz    dz2    dxz  x2-y2    tot
    1  0.003  0.000  0.000  0.000  0.002  0.001  0.000  0.004  0.001  0.012
    2  0.001  0.002  0.001  0.005  0.000  0.000  0.000  0.000  0.000  0.008
    3  0.330  0.000  0.000  0.000  0.000  0.000  0.000  0.000  0.000  0.330
    4  0.330  0.000  0.000  0.000  0.000  0.000  0.000  0.000  0.000  0.330
tot    0.664  0.002  0.001  0.005  0.002  0.001  0.000  0.004  0.001  0.681
 
band     9 # energy    0.94157624 # occ.  1.00000000
 
ion      s     py     pz     px    dxy    dyz    dz2    dxz  x2-y2    tot
    1  0.000  0.002  0.009  0.006  0.001  0.000  0.000  0.001  0.000  0.019
    2  0.083  0.000  0.000  0.000  0.028  0.004  0.007  0.011  0.009  0.143
    3  0.002  0.025  0.021  0.075  0.000  0.000  0.000  0.000  0.000  0.123
    4  0.002  0.025  0.021  0.075  0.000  0.000  0.000  0.000  0.000  0.123
tot    0.088  0.052  0.050  0.156  0.029  0.004  0.007  0.012  0.010  0.408
 
band    10 # energy    1.19445702 # occ.  1.00000000
 
ion      s     py     pz     px    dxy    dyz    dz2    dxz  x2-y2    tot
    1  0.063  0.000  0.000  0.000  0.006  0.001  0.002  0.002  0.002  0.075
    2  0.000  0.003  0.013  0.009  0.006  0.002  0.000  0.005  0.002  0.040
    3  0.001  0.027  0.025  0.082  0.000  0.000  0.000  0.000  0.000  0.136
    4  0.001  0.027  0.025  0.082  0.000  0.000  0.000  0.000  0.000  0.136
tot    0.066  0.058  0.062  0.174  0.012  0.002  0.002  0.007  0.004  0.386
 
band    11 # energy    2.62785870 # occ.  1.00000000
 
ion      s     py     pz     px    dxy    dyz    dz2    dxz  x2-y2    tot
    1  0.000  0.001  0.006  0.004  0.000  0.000  0.000  0.000  0.000  0.011
    2  0.002  0.000  0.000  0.001  0.168  0.039  0.185  0.116  0.056  0.567
    3  0.001  0.003  0.059  0.009  0.001  0.000  0.000  0.000  0.000  0.072
    4  0.001  0.003  0.059  0.009  0.001  0.000  0.000  0.000  0.000  0.072
tot    0.003  0.007  0.124  0.022  0.170  0.039  0.185  0.116  0.057  0.722
 
band    12 # energy    2.63852548 # occ.  1.00000000
 
ion      s     py     pz     px    dxy    dyz    dz2    dxz  x2-y2    tot
    1  0.000  0.004  0.000  0.001  0.000  0.000  0.000  0.000  0.000  0.006
    2  0.000  0.000  0.000  0.000  0.013  0.430  0.000  0.143  0.039  0.625
    3  0.000  0.051  0.000  0.017  0.000  0.000  0.000  0.000  0.000  0.068
    4  0.000  0.051  0.000  0.017  0.000  0.000  0.000  0.000  0.000  0.068
tot    0.000  0.105  0.000  0.035  0.013  0.430  0.000  0.143  0.040  0.767
 
band    13 # energy    3.24741469 # occ.  1.00000000
 
ion      s     py     pz     px    dxy    dyz    dz2    dxz  x2-y2    tot
    1  0.000  0.001  0.001  0.002  0.000  0.000  0.001  0.000  0.000  0.004
    2  0.001  0.000  0.000  0.000  0.040  0.118  0.299  0.354  0.013  0.826
    3  0.001  0.000  0.011  0.001  0.000  0.000  0.001  0.000  0.000  0.015
    4  0.001  0.000  0.011  0.001  0.000  0.000  0.001  0.000  0.000  0.015
tot    0.003  0.001  0.024  0.003  0.041  0.118  0.301  0.355  0.014  0.860
 
band    14 # energy    3.44381318 # occ.  1.00000000
 
ion      s     py     pz     px    dxy    dyz    dz2    dxz  x2-y2    tot
    1  0.000  0.000  0.000  0.000  0.000  0.004  0.000  0.001  0.000  0.005
    2  0.000  0.001  0.000  0.000  0.200  0.054  0.000  0.018  0.600  0.873
    3  0.000  0.008  0.000  0.003  0.000  0.000  0.000  0.000  0.000  0.011
    4  0.000  0.008  0.000  0.003  0.000  0.000  0.000  0.000  0.000  0.011
tot    0.000  0.017  0.000  0.006  0.200  0.058  0.000  0.019  0.600  0.900
 
band    15 # energy    3.53141376 # occ.  1.00000000
 
ion      s     py     pz     px    dxy    dyz    dz2    dxz  x2-y2    tot
    1  0.002  0.000  0.000  0.000  0.008  0.004  0.005  0.013  0.003  0.036
    2  0.016  0.001  0.004  0.002  0.262  0.013  0.235  0.038  0.087  0.658
    3  0.001  0.004  0.035  0.011  0.000  0.000  0.000  0.000  0.000  0.051
    4  0.001  0.004  0.035  0.011  0.000  0.000  0.000  0.000  0.000  0.051
tot    0.020  0.008  0.074  0.024  0.271  0.017  0.240  0.051  0.090  0.795
 
band    16 # energy    3.84467613 # occ.  1.00000000
 
ion      s     py     pz     px    dxy    dyz    dz2    dxz  x2-y2    tot
    1  0.002  0.000  0.000  0.001  0.027  0.010  0.017  0.030  0.009  0.097
    2  0.002  0.003  0.011  0.010  0.075  0.001  0.136  0.002  0.025  0.265
    3  0.001  0.005  0.108  0.016  0.001  0.000  0.000  0.000  0.000  0.132
    4  0.001  0.005  0.108  0.016  0.001  0.000  0.000  0.000  0.000  0.132
tot    0.005  0.015  0.228  0.044  0.103  0.011  0.153  0.033  0.034  0.625
 
band    17 # energy    3.93452836 # occ.  1.00000000
 
ion      s     py     pz     px    dxy    dyz    dz2    dxz  x2-y2    tot
    1  0.000  0.000  0.000  0.000  0.003  0.088  0.000  0.029  0.010  0.130
    2  0.000  0.021  0.000  0.007  0.013  0.003  0.000  0.001  0.038  0.083
    3  0.000  0.130  0.000  0.043  0.000  0.000  0.000  0.000  0.000  0.174
    4  0.000  0.130  0.000  0.043  0.000  0.000  0.000  0.000  0.000  0.174
tot    0.000  0.282  0.000  0.094  0.016  0.091  0.000  0.030  0.048  0.561
 
band    18 # energy    5.44231082 # occ.  1.00000000
 
ion      s     py     pz     px    dxy    dyz    dz2    dxz  x2-y2    tot
    1  0.000  0.022  0.000  0.007  0.001  0.000  0.000  0.000  0.004  0.035
    2  0.000  0.000  0.000  0.000  0.006  0.207  0.000  0.069  0.017  0.298
    3  0.000  0.114  0.000  0.038  0.000  0.002  0.000  0.001  0.000  0.156
    4  0.000  0.114  0.000  0.038  0.000  0.002  0.000  0.001  0.000  0.156
tot    0.000  0.252  0.000  0.084  0.007  0.212  0.000  0.071  0.020  0.645
 
band    19 # energy    5.58389295 # occ.  1.00000000
 
ion      s     py     pz     px    dxy    dyz    dz2    dxz  x2-y2    tot
    1  0.005  0.003  0.006  0.009  0.000  0.001  0.009  0.002  0.000  0.035
    2  0.005  0.000  0.001  0.001  0.093  0.052  0.039  0.155  0.031  0.378
    3  0.018  0.004  0.107  0.013  0.000  0.000  0.000  0.001  0.000  0.144
    4  0.018  0.004  0.107  0.013  0.000  0.000  0.000  0.001  0.000  0.144
tot    0.046  0.012  0.222  0.037  0.093  0.053  0.049  0.158  0.031  0.701
 
band    20 # energy    6.56076743 # occ.  0.00543361
 
ion      s     py     pz     px    dxy    dyz    dz2    dxz  x2-y2    tot
    1  0.002  0.000  0.000  0.001  0.133  0.061  0.213  0.182  0.044  0.635
    2  0.004  0.001  0.009  0.002  0.003  0.001  0.000  0.002  0.001  0.021
    3  0.002  0.000  0.006  0.000  0.003  0.001  0.003  0.002  0.001  0.018
    4  0.002  0.000  0.006  0.000  0.003  0.001  0.003  0.002  0.001  0.018
tot    0.009  0.001  0.021  0.003  0.142  0.063  0.219  0.188  0.047  0.691
 
band    21 # energy    7.39894486 # occ.  0.00000000
 
ion      s     py     pz     px    dxy    dyz    dz2    dxz  x2-y2    tot
    1  0.000  0.000  0.000  0.000  0.214  0.001  0.000  0.000  0.642  0.858
    2  0.000  0.004  0.000  0.001  0.000  0.001  0.000  0.000  0.000  0.006
    3  0.000  0.003  0.000  0.001  0.000  0.002  0.000  0.001  0.001  0.007
    4  0.000  0.003  0.000  0.001  0.000  0.002  0.000  0.001  0.001  0.007
tot    0.000  0.009  0.000  0.003  0.214  0.006  0.000  0.002  0.643  0.877
 
band    22 # energy    7.44164175 # occ.  0.00000000
 
ion      s     py     pz     px    dxy    dyz    dz2    dxz  x2-y2    tot
    1  0.015  0.000  0.001  0.000  0.270  0.001  0.440  0.002  0.090  0.818
    2  0.010  0.000  0.001  0.000  0.001  0.000  0.001  0.001  0.000  0.013
    3  0.001  0.001  0.003  0.003  0.000  0.000  0.000  0.001  0.000  0.011
    4  0.001  0.001  0.003  0.003  0.000  0.000  0.000  0.001  0.000  0.011
tot    0.027  0.002  0.009  0.005  0.271  0.002  0.442  0.005  0.090  0.853
 
band    23 # energy    7.74591093 # occ.  0.00000000
 
ion      s     py     pz     px    dxy    dyz    dz2    dxz  x2-y2    tot
    1  0.000  0.000  0.000  0.000  0.003  0.554  0.000  0.185  0.009  0.750
    2  0.000  0.017  0.000  0.006  0.000  0.000  0.000  0.000  0.001  0.024
    3  0.000  0.019  0.000  0.006  0.000  0.005  0.000  0.002  0.000  0.032
    4  0.000  0.019  0.000  0.006  0.000  0.005  0.000  0.002  0.000  0.032
tot    0.000  0.056  0.000  0.019  0.003  0.563  0.000  0.188  0.010  0.839
 
band    24 # energy    7.87692008 # occ.  0.00000000
 
ion      s     py     pz     px    dxy    dyz    dz2    dxz  x2-y2    tot
    1  0.015  0.003  0.003  0.008  0.016  0.071  0.061  0.212  0.005  0.393
    2  0.116  0.001  0.000  0.002  0.001  0.000  0.003  0.001  0.000  0.125
    3  0.025  0.004  0.004  0.013  0.003  0.003  0.000  0.008  0.001  0.061
    4  0.025  0.004  0.004  0.013  0.003  0.003  0.000  0.008  0.001  0.061
tot    0.180  0.012  0.012  0.036  0.023  0.076  0.064  0.228  0.008  0.639
 

 k-point     4 :   -0.42105263 0.00000000 0.50000000     weight = 0.02500000

band     1 # energy  -44.23215758 # occ.  1.00000000
 
ion      s     py     pz     px    dxy    dyz    dz2    dxz  x2-y2    tot
    1  0.000  0.000  0.000  0.000  0.000  0.000  0.000  0.000  0.000  0.000
    2  0.000  0.247  0.000  0.749  0.000  0.000  0.000  0.000  0.000  0.995
    3  0.000  0.000  0.000  0.000  0.000  0.000  0.000  0.000  0.000  0.000
    4  0.000  0.000  0.000  0.000  0.000  0.000  0.000  0.000  0.000  0.000
tot    0.000  0.247  0.000  0.749  0.000  0.000  0.000  0.000  0.000  0.995
 
band     2 # energy  -44.23148654 # occ.  1.00000000
 
ion      s     py     pz     px    dxy    dyz    dz2    dxz  x2-y2    tot
    1  0.000  0.000  0.000  0.000  0.000  0.000  0.000  0.000  0.000  0.000
    2  0.000  0.749  0.000  0.247  0.000  0.000  0.000  0.000  0.000  0.995
    3  0.000  0.000  0.000  0.000  0.000  0.000  0.000  0.000  0.000  0.000
    4  0.000  0.000  0.000  0.000  0.000  0.000  0.000  0.000  0.000  0.000
tot    0.000  0.749  0.000  0.247  0.000  0.000  0.000  0.000  0.000  0.995
 
band     3 # energy  -44.22816804 # occ.  1.00000000
 
ion      s     py     pz     px    dxy    dyz    dz2    dxz  x2-y2    tot
    1  0.000  0.000  0.000  0.000  0.000  0.000  0.000  0.000  0.000  0.000
    2  0.000  0.000  0.995  0.000  0.000  0.000  0.000  0.000  0.000  0.995
    3  0.000  0.000  0.000  0.000  0.000  0.000  0.000  0.000  0.000  0.000
    4  0.000  0.000  0.000  0.000  0.000  0.000  0.000  0.000  0.000  0.000
tot    0.000  0.000  0.995  0.000  0.000  0.000  0.000  0.000  0.000  0.995
 
band     4 # energy  -39.85041341 # occ.  1.00000000
 
ion      s     py     pz     px    dxy    dyz    dz2    dxz  x2-y2    tot
    1  0.000  0.000  0.995  0.000  0.000  0.000  0.000  0.000  0.000  0.995
    2  0.000  0.000  0.000  0.000  0.000  0.000  0.000  0.000  0.000  0.000
    3  0.000  0.000  0.000  0.000  0.000  0.000  0.000  0.000  0.000  0.000
    4  0.000  0.000  0.000  0.000  0.000  0.000  0.000  0.000  0.000  0.000
tot    0.000  0.000  0.995  0.000  0.000  0.000  0.000  0.000  0.000  0.995
 
band     5 # energy  -39.84495019 # occ.  1.00000000
 
ion      s     py     pz     px    dxy    dyz    dz2    dxz  x2-y2    tot
    1  0.000  0.247  0.000  0.749  0.000  0.000  0.000  0.000  0.000  0.995
    2  0.000  0.000  0.000  0.000  0.000  0.000  0.000  0.000  0.000  0.000
    3  0.000  0.000  0.000  0.000  0.000  0.000  0.000  0.000  0.000  0.000
    4  0.000  0.000  0.000  0.000  0.000  0.000  0.000  0.000  0.000  0.000
tot    0.000  0.247  0.000  0.749  0.000  0.000  0.000  0.000  0.000  0.995
 
band     6 # energy  -39.84394529 # occ.  1.00000000
 
ion      s     py     pz     px    dxy    dyz    dz2    dxz  x2-y2    tot
    1  0.000  0.749  0.000  0.247  0.000  0.000  0.000  0.000  0.000  0.995
    2  0.000  0.000  0.000  0.000  0.000  0.000  0.000  0.000  0.000  0.000
    3  0.000  0.000  0.000  0.000  0.000  0.000  0.000  0.000  0.000  0.000
    4  0.000  0.000  0.000  0.000  0.000  0.000  0.000  0.000  0.000  0.000
tot    0.000  0.749  0.000  0.247  0.000  0.000  0.000  0.000  0.000  0.996
 
band     7 # energy   -4.75538442 # occ.  1.00000000
 
ion      s     py     pz     px    dxy    dyz    dz2    dxz  x2-y2    tot
    1  0.001  0.001  0.001  0.004  0.000  0.000  0.000  0.000  0.000  0.007
    2  0.005  0.000  0.000  0.000  0.003  0.002  0.000  0.006  0.001  0.018
    3  0.326  0.000  0.000  0.000  0.000  0.000  0.000  0.000  0.000  0.326
    4  0.326  0.000  0.000  0.000  0.000  0.000  0.000  0.000  0.000  0.326
tot    0.657  0.001  0.001  0.004  0.003  0.002  0.000  0.007  0.001  0.678
 
band     8 # energy   -4.73469502 # occ.  1.00000000
 
ion      s     py     pz     px    dxy    dyz    dz2    dxz  x2-y2    tot
    1  0.004  0.000  0.000  0.000  0.002  0.001  0.000  0.004  0.001  0.012
    2  0.001  0.001  0.001  0.004  0.000  0.000  0.000  0.000  0.000  0.009
    3  0.328  0.000  0.000  0.000  0.000  0.000  0.000  0.000  0.000  0.328
    4  0.328  0.000  0.000  0.000  0.000  0.000  0.000  0.000  0.000  0.328
tot    0.661  0.002  0.002  0.005  0.002  0.001  0.000  0.004  0.001  0.677
 
band     9 # energy    1.01451223 # occ.  1.00000000
 
ion      s     py     pz     px    dxy    dyz    dz2    dxz  x2-y2    tot
    1  0.000  0.002  0.008  0.006  0.002  0.001  0.000  0.002  0.001  0.021
    2  0.082  0.000  0.000  0.000  0.030  0.003  0.007  0.010  0.010  0.143
    3  0.004  0.025  0.022  0.074  0.000  0.000  0.000  0.000  0.000  0.125
    4  0.004  0.025  0.022  0.074  0.000  0.000  0.000  0.000  0.000  0.125
tot    0.091  0.051  0.052  0.154  0.032  0.004  0.007  0.013  0.011  0.414
 
band    10 # energy    1.24358817 # occ.  1.00000000
 
ion      s     py     pz     px    dxy    dyz    dz2    dxz  x2-y2    tot
    1  0.061  0.000  0.000  0.000  0.006  0.000  0.001  0.001  0.002  0.072
    2  0.001  0.003  0.012  0.009  0.012  0.004  0.000  0.012  0.004  0.057
    3  0.003  0.027  0.026  0.080  0.000  0.000  0.000  0.000  0.000  0.136
    4  0.003  0.027  0.026  0.080  0.000  0.000  0.000  0.000  0.000  0.136
tot    0.067  0.056  0.064  0.169  0.018  0.004  0.001  0.013  0.006  0.400
 
band    11 # energy    2.64696203 # occ.  1.00000000
 
ion      s     py     pz     px    dxy    dyz    dz2    dxz  x2-y2    tot
    1  0.000  0.004  0.000  0.001  0.000  0.000  0.000  0.000  0.000  0.006
    2  0.000  0.000  0.000  0.000  0.014  0.428  0.000  0.143  0.043  0.629
    3  0.000  0.050  0.000  0.017  0.000  0.000  0.000  0.000  0.000  0.068
    4  0.000  0.050  0.000  0.017  0.000  0.000  0.000  0.000  0.000  0.068
tot    0.000  0.104  0.000  0.035  0.015  0.428  0.000  0.143  0.044  0.769
 
band    12 # energy    2.65640859 # occ.  1.00000000
 
ion      s     py     pz     px    dxy    dyz    dz2    dxz  x2-y2    tot
    1  0.000  0.001  0.006  0.003  0.001  0.000  0.001  0.000  0.000  0.012
    2  0.002  0.001  0.001  0.002  0.146  0.035  0.219  0.106  0.049  0.560
    3  0.001  0.003  0.058  0.010  0.001  0.000  0.000  0.000  0.000  0.072
    4  0.001  0.003  0.058  0.010  0.001  0.000  0.000  0.000  0.000  0.072
tot    0.003  0.008  0.122  0.024  0.148  0.035  0.220  0.106  0.049  0.716
 
band    13 # energy    3.25189393 # occ.  1.00000000
 
ion      s     py     pz     px    dxy    dyz    dz2    dxz  x2-y2    tot
    1  0.000  0.001  0.001  0.002  0.000  0.000  0.001  0.001  0.000  0.006
    2  0.000  0.000  0.001  0.000  0.034  0.119  0.287  0.356  0.011  0.807
    3  0.001  0.001  0.014  0.002  0.000  0.000  0.001  0.000  0.000  0.019
    4  0.001  0.001  0.014  0.002  0.000  0.000  0.001  0.000  0.000  0.019
tot    0.003  0.002  0.029  0.006  0.034  0.119  0.289  0.357  0.011  0.852
 
band    14 # energy    3.41066651 # occ.  1.00000000
 
ion      s     py     pz     px    dxy    dyz    dz2    dxz  x2-y2    tot
    1  0.000  0.000  0.000  0.000  0.000  0.006  0.000  0.002  0.001  0.009
    2  0.000  0.002  0.000  0.001  0.190  0.057  0.000  0.019  0.569  0.837
    3  0.000  0.013  0.000  0.004  0.000  0.000  0.000  0.000  0.000  0.018
    4  0.000  0.013  0.000  0.004  0.000  0.000  0.000  0.000  0.000  0.018
tot    0.000  0.029  0.000  0.010  0.190  0.063  0.000  0.021  0.569  0.882
 
band    15 # energy    3.48425682 # occ.  1.00000000
 
ion      s     py     pz     px    dxy    dyz    dz2    dxz  x2-y2    tot
    1  0.004  0.000  0.000  0.000  0.008  0.005  0.006  0.016  0.003  0.042
    2  0.017  0.001  0.006  0.002  0.269  0.013  0.175  0.039  0.090  0.610
    3  0.002  0.004  0.039  0.013  0.001  0.000  0.000  0.000  0.000  0.059
    4  0.002  0.004  0.039  0.013  0.001  0.000  0.000  0.000  0.000  0.059
tot    0.023  0.009  0.084  0.028  0.279  0.018  0.181  0.055  0.093  0.771
 
band    16 # energy    3.90973043 # occ.  1.00000000
 
ion      s     py     pz     px    dxy    dyz    dz2    dxz  x2-y2    tot
    1  0.001  0.001  0.001  0.002  0.023  0.008  0.017  0.025  0.008  0.085
    2  0.001  0.003  0.010  0.010  0.093  0.000  0.169  0.001  0.031  0.318
    3  0.001  0.005  0.100  0.016  0.001  0.000  0.000  0.000  0.000  0.123
    4  0.001  0.005  0.100  0.016  0.001  0.000  0.000  0.000  0.000  0.123
tot    0.004  0.014  0.212  0.042  0.117  0.009  0.187  0.026  0.039  0.649
 
band    17 # energy    3.98534492 # occ.  1.00000000
 
ion      s     py     pz     px    dxy    dyz    dz2    dxz  x2-y2    tot
    1  0.000  0.000  0.000  0.000  0.004  0.086  0.000  0.029  0.011  0.130
    2  0.000  0.020  0.000  0.007  0.021  0.006  0.000  0.002  0.062  0.117
    3  0.000  0.125  0.000  0.042  0.000  0.000  0.000  0.000  0.000  0.167
    4  0.000  0.125  0.000  0.042  0.000  0.000  0.000  0.000  0.000  0.167
tot    0.000  0.270  0.000  0.090  0.024  0.092  0.000  0.031  0.073  0.581
 
band    18 # energy    5.44551815 # occ.  1.00000000
 
ion      s     py     pz     px    dxy    dyz    dz2    dxz  x2-y2    tot
    1  0.000  0.022  0.000  0.007  0.003  0.000  0.000  0.000  0.008  0.040
    2  0.000  0.000  0.000  0.000  0.006  0.201  0.000  0.067  0.018  0.293
    3  0.000  0.114  0.000  0.038  0.000  0.002  0.000  0.001  0.000  0.156
    4  0.000  0.114  0.000  0.038  0.000  0.002  0.000  0.001  0.000  0.156
tot    0.000  0.251  0.000  0.084  0.009  0.207  0.000  0.069  0.026  0.645
 
band    19 # energy    5.49493179 # occ.  1.00000000
 
ion      s     py     pz     px    dxy    dyz    dz2    dxz  x2-y2    tot
    1  0.009  0.002  0.007  0.007  0.000  0.001  0.014  0.004  0.000  0.044
    2  0.004  0.001  0.001  0.003  0.084  0.052  0.045  0.156  0.028  0.373
    3  0.017  0.005  0.101  0.014  0.000  0.000  0.000  0.001  0.000  0.140
    4  0.017  0.005  0.101  0.014  0.000  0.000  0.000  0.001  0.000  0.140
tot    0.047  0.013  0.211  0.039  0.084  0.054  0.060  0.162  0.028  0.697
 
band    20 # energy    6.57908430 # occ.  0.00108828
 
ion      s     py     pz     px    dxy    dyz    dz2    dxz  x2-y2    tot
    1  0.003  0.000  0.000  0.001  0.149  0.058  0.191  0.173  0.050  0.625
    2  0.007  0.000  0.008  0.001  0.004  0.001  0.000  0.003  0.001  0.027
    3  0.003  0.000  0.007  0.000  0.004  0.001  0.003  0.002  0.001  0.020
    4  0.003  0.000  0.007  0.000  0.004  0.001  0.003  0.002  0.001  0.020
tot    0.016  0.001  0.021  0.002  0.160  0.060  0.197  0.179  0.053  0.690
 
band    21 # energy    7.41131078 # occ.  0.00000000
 
ion      s     py     pz     px    dxy    dyz    dz2    dxz  x2-y2    tot
    1  0.000  0.001  0.000  0.000  0.213  0.000  0.000  0.000  0.639  0.852
    2  0.000  0.003  0.000  0.001  0.000  0.002  0.000  0.001  0.000  0.008
    3  0.000  0.004  0.000  0.001  0.000  0.002  0.000  0.001  0.001  0.008
    4  0.000  0.004  0.000  0.001  0.000  0.002  0.000  0.001  0.001  0.008
tot    0.000  0.012  0.000  0.004  0.213  0.006  0.000  0.002  0.640  0.877
 
band    22 # energy    7.42062853 # occ.  0.00000000
 
ion      s     py     pz     px    dxy    dyz    dz2    dxz  x2-y2    tot
    1  0.008  0.000  0.001  0.000  0.269  0.001  0.401  0.004  0.090  0.774
    2  0.022  0.000  0.001  0.000  0.001  0.000  0.002  0.001  0.000  0.027
    3  0.003  0.001  0.006  0.004  0.000  0.001  0.000  0.002  0.000  0.018
    4  0.003  0.001  0.006  0.004  0.000  0.001  0.000  0.002  0.000  0.018
tot    0.037  0.003  0.014  0.009  0.271  0.003  0.404  0.008  0.090  0.838
 
band    23 # energy    7.74716069 # occ.  0.00000000
 
ion      s     py     pz     px    dxy    dyz    dz2    dxz  x2-y2    tot
    1  0.000  0.000  0.000  0.000  0.002  0.555  0.000  0.185  0.005  0.746
    2  0.000  0.017  0.000  0.006  0.000  0.000  0.000  0.000  0.001  0.024
    3  0.000  0.020  0.000  0.007  0.000  0.005  0.000  0.002  0.000  0.033
    4  0.000  0.020  0.000  0.007  0.000  0.005  0.000  0.002  0.000  0.033
tot    0.000  0.058  0.000  0.019  0.002  0.564  0.000  0.188  0.007  0.838
 
band    24 # energy    7.82529226 # occ.  0.00000000
 
ion      s     py     pz     px    dxy    dyz    dz2    dxz  x2-y2    tot
    1  0.015  0.002  0.002  0.007  0.004  0.090  0.130  0.269  0.001  0.521
    2  0.088  0.000  0.000  0.001  0.001  0.000  0.002  0.000  0.000  0.094
    3  0.022  0.003  0.003  0.009  0.002  0.002  0.000  0.006  0.001  0.048
    4  0.022  0.003  0.003  0.009  0.002  0.002  0.000  0.006  0.001  0.048
tot    0.147  0.009  0.009  0.027  0.009  0.094  0.132  0.282  0.003  0.711
 

 k-point     5 :   -0.39473684 0.00000000 0.50000000     weight = 0.02500000

band     1 # energy  -44.23210830 # occ.  1.00000000
 
ion      s     py     pz     px    dxy    dyz    dz2    dxz  x2-y2    tot
    1  0.000  0.000  0.000  0.000  0.000  0.000  0.000  0.000  0.000  0.000
    2  0.000  0.246  0.000  0.749  0.000  0.000  0.000  0.000  0.000  0.995
    3  0.000  0.000  0.000  0.000  0.000  0.000  0.000  0.000  0.000  0.000
    4  0.000  0.000  0.000  0.000  0.000  0.000  0.000  0.000  0.000  0.000
tot    0.000  0.246  0.000  0.749  0.000  0.000  0.000  0.000  0.000  0.995
 
band     2 # energy  -44.23147355 # occ.  1.00000000
 
ion      s     py     pz     px    dxy    dyz    dz2    dxz  x2-y2    tot
    1  0.000  0.000  0.000  0.000  0.000  0.000  0.000  0.000  0.000  0.000
    2  0.000  0.749  0.000  0.246  0.000  0.000  0.000  0.000  0.000  0.995
    3  0.000  0.000  0.000  0.000  0.000  0.000  0.000  0.000  0.000  0.000
    4  0.000  0.000  0.000  0.000  0.000  0.000  0.000  0.000  0.000  0.000
tot    0.000  0.749  0.000  0.246  0.000  0.000  0.000  0.000  0.000  0.995
 
band     3 # energy  -44.22816296 # occ.  1.00000000
 
ion      s     py     pz     px    dxy    dyz    dz2    dxz  x2-y2    tot
    1  0.000  0.000  0.000  0.000  0.000  0.000  0.000  0.000  0.000  0.000
    2  0.000  0.000  0.995  0.000  0.000  0.000  0.000  0.000  0.000  0.995
    3  0.000  0.000  0.000  0.000  0.000  0.000  0.000  0.000  0.000  0.000
    4  0.000  0.000  0.000  0.000  0.000  0.000  0.000  0.000  0.000  0.000
tot    0.000  0.000  0.995  0.000  0.000  0.000  0.000  0.000  0.000  0.995
 
band     4 # energy  -39.85040966 # occ.  1.00000000
 
ion      s     py     pz     px    dxy    dyz    dz2    dxz  x2-y2    tot
    1  0.000  0.000  0.995  0.000  0.000  0.000  0.000  0.000  0.000  0.995
    2  0.000  0.000  0.000  0.000  0.000  0.000  0.000  0.000  0.000  0.000
    3  0.000  0.000  0.000  0.000  0.000  0.000  0.000  0.000  0.000  0.000
    4  0.000  0.000  0.000  0.000  0.000  0.000  0.000  0.000  0.000  0.000
tot    0.000  0.000  0.995  0.000  0.000  0.000  0.000  0.000  0.000  0.995
 
band     5 # energy  -39.84487759 # occ.  1.00000000
 
ion      s     py     pz     px    dxy    dyz    dz2    dxz  x2-y2    tot
    1  0.000  0.246  0.000  0.749  0.000  0.000  0.000  0.000  0.000  0.995
    2  0.000  0.000  0.000  0.000  0.000  0.000  0.000  0.000  0.000  0.000
    3  0.000  0.000  0.000  0.000  0.000  0.000  0.000  0.000  0.000  0.000
    4  0.000  0.000  0.000  0.000  0.000  0.000  0.000  0.000  0.000  0.000
tot    0.000  0.246  0.000  0.749  0.000  0.000  0.000  0.000  0.000  0.995
 
band     6 # energy  -39.84392642 # occ.  1.00000000
 
ion      s     py     pz     px    dxy    dyz    dz2    dxz  x2-y2    tot
    1  0.000  0.749  0.000  0.246  0.000  0.000  0.000  0.000  0.000  0.995
    2  0.000  0.000  0.000  0.000  0.000  0.000  0.000  0.000  0.000  0.000
    3  0.000  0.000  0.000  0.000  0.000  0.000  0.000  0.000  0.000  0.000
    4  0.000  0.000  0.000  0.000  0.000  0.000  0.000  0.000  0.000  0.000
tot    0.000  0.749  0.000  0.246  0.000  0.000  0.000  0.000  0.000  0.996
 
band     7 # energy   -4.79665284 # occ.  1.00000000
 
ion      s     py     pz     px    dxy    dyz    dz2    dxz  x2-y2    tot
    1  0.001  0.001  0.001  0.003  0.000  0.000  0.000  0.001  0.000  0.007
    2  0.006  0.000  0.000  0.001  0.003  0.002  0.000  0.005  0.001  0.018
    3  0.323  0.000  0.000  0.000  0.000  0.000  0.000  0.000  0.000  0.324
    4  0.323  0.000  0.000  0.000  0.000  0.000  0.000  0.000  0.000  0.324
tot    0.654  0.001  0.002  0.004  0.003  0.002  0.000  0.006  0.001  0.673
 
band     8 # energy   -4.77819236 # occ.  1.00000000
 
ion      s     py     pz     px    dxy    dyz    dz2    dxz  x2-y2    tot
    1  0.005  0.000  0.000  0.001  0.002  0.001  0.000  0.003  0.001  0.012
    2  0.002  0.001  0.001  0.004  0.000  0.000  0.000  0.001  0.000  0.010
    3  0.325  0.000  0.000  0.000  0.000  0.000  0.000  0.000  0.000  0.325
    4  0.325  0.000  0.000  0.000  0.000  0.000  0.000  0.000  0.000  0.325
tot    0.656  0.002  0.002  0.005  0.002  0.001  0.000  0.004  0.001  0.673
 
band     9 # energy    1.11273965 # occ.  1.00000000
 
ion      s     py     pz     px    dxy    dyz    dz2    dxz  x2-y2    tot
    1  0.001  0.002  0.007  0.006  0.003  0.001  0.000  0.003  0.001  0.023
    2  0.080  0.000  0.000  0.000  0.034  0.003  0.006  0.009  0.011  0.144
    3  0.007  0.024  0.024  0.072  0.000  0.000  0.000  0.000  0.000  0.128
    4  0.007  0.024  0.024  0.072  0.000  0.000  0.000  0.000  0.000  0.128
tot    0.094  0.050  0.056  0.151  0.037  0.004  0.006  0.013  0.012  0.423
 
band    10 # energy    1.30867817 # occ.  1.00000000
 
ion      s     py     pz     px    dxy    dyz    dz2    dxz  x2-y2    tot
    1  0.058  0.000  0.000  0.000  0.006  0.000  0.001  0.001  0.002  0.069
    2  0.002  0.003  0.010  0.008  0.020  0.007  0.000  0.021  0.007  0.079
    3  0.004  0.026  0.028  0.077  0.000  0.000  0.000  0.000  0.000  0.135
    4  0.004  0.026  0.028  0.077  0.000  0.000  0.000  0.000  0.000  0.135
tot    0.069  0.054  0.067  0.162  0.027  0.007  0.001  0.022  0.009  0.419
 
band    11 # energy    2.65808426 # occ.  1.00000000
 
ion      s     py     pz     px    dxy    dyz    dz2    dxz  x2-y2    tot
    1  0.000  0.004  0.000  0.001  0.000  0.000  0.000  0.000  0.000  0.006
    2  0.000  0.000  0.000  0.000  0.017  0.425  0.000  0.142  0.050  0.633
    3  0.000  0.049  0.000  0.016  0.000  0.000  0.000  0.000  0.000  0.067
    4  0.000  0.049  0.000  0.016  0.000  0.000  0.000  0.000  0.000  0.067
tot    0.000  0.103  0.000  0.034  0.017  0.425  0.000  0.142  0.051  0.772
 
band    12 # energy    2.68924346 # occ.  1.00000000
 
ion      s     py     pz     px    dxy    dyz    dz2    dxz  x2-y2    tot
    1  0.000  0.001  0.007  0.003  0.001  0.000  0.001  0.000  0.000  0.013
    2  0.001  0.001  0.001  0.003  0.115  0.031  0.273  0.092  0.038  0.554
    3  0.001  0.003  0.056  0.010  0.001  0.000  0.000  0.000  0.000  0.072
    4  0.001  0.003  0.056  0.010  0.001  0.000  0.000  0.000  0.000  0.072
tot    0.003  0.009  0.119  0.027  0.117  0.031  0.274  0.092  0.039  0.711
 
band    13 # energy    3.26162884 # occ.  1.00000000
 
ion      s     py     pz     px    dxy    dyz    dz2    dxz  x2-y2    tot
    1  0.000  0.001  0.001  0.002  0.000  0.000  0.002  0.001  0.000  0.007
    2  0.000  0.000  0.002  0.000  0.031  0.122  0.253  0.365  0.010  0.784
    3  0.002  0.001  0.016  0.004  0.000  0.000  0.001  0.000  0.000  0.024
    4  0.002  0.001  0.016  0.004  0.000  0.000  0.001  0.000  0.000  0.024
tot    0.004  0.003  0.035  0.010  0.032  0.122  0.257  0.366  0.011  0.840
 
band    14 # energy    3.37435817 # occ.  1.00000000
 
ion      s     py     pz     px    dxy    dyz    dz2    dxz  x2-y2    tot
    1  0.000  0.000  0.000  0.000  0.000  0.007  0.000  0.002  0.001  0.011
    2  0.000  0.003  0.000  0.001  0.181  0.063  0.000  0.021  0.542  0.810
    3  0.000  0.017  0.000  0.006  0.000  0.000  0.000  0.000  0.000  0.023
    4  0.000  0.017  0.000  0.006  0.000  0.000  0.000  0.000  0.000  0.023
tot    0.000  0.037  0.000  0.012  0.181  0.071  0.000  0.024  0.543  0.867
 
band    15 # energy    3.45102809 # occ.  1.00000000
 
ion      s     py     pz     px    dxy    dyz    dz2    dxz  x2-y2    tot
    1  0.005  0.000  0.000  0.000  0.007  0.006  0.007  0.018  0.002  0.046
    2  0.018  0.000  0.007  0.001  0.283  0.011  0.131  0.033  0.094  0.579
    3  0.002  0.006  0.039  0.017  0.001  0.000  0.000  0.000  0.000  0.065
    4  0.002  0.006  0.039  0.017  0.001  0.000  0.000  0.000  0.000  0.065
tot    0.026  0.012  0.086  0.035  0.292  0.017  0.138  0.052  0.097  0.754
 
band    16 # energy    3.96986763 # occ.  1.00000000
 
ion      s     py     pz     px    dxy    dyz    dz2    dxz  x2-y2    tot
    1  0.000  0.001  0.001  0.002  0.019  0.007  0.019  0.020  0.006  0.076
    2  0.001  0.003  0.010  0.009  0.107  0.000  0.185  0.000  0.036  0.349
    3  0.002  0.005  0.096  0.015  0.001  0.000  0.000  0.000  0.000  0.119
    4  0.002  0.005  0.096  0.015  0.001  0.000  0.000  0.000  0.000  0.119
tot    0.004  0.014  0.202  0.042  0.127  0.007  0.204  0.020  0.042  0.663
 
band    17 # energy    4.04567581 # occ.  1.00000000
 
ion      s     py     pz     px    dxy    dyz    dz2    dxz  x2-y2    tot
    1  0.000  0.000  0.000  0.000  0.004  0.086  0.000  0.029  0.012  0.131
    2  0.000  0.019  0.000  0.006  0.026  0.009  0.000  0.003  0.078  0.141
    3  0.000  0.121  0.000  0.040  0.000  0.000  0.000  0.000  0.000  0.162
    4  0.000  0.121  0.000  0.040  0.000  0.000  0.000  0.000  0.000  0.162
tot    0.000  0.262  0.000  0.087  0.030  0.095  0.000  0.032  0.091  0.597
 
band    18 # energy    5.39096372 # occ.  1.00000000
 
ion      s     py     pz     px    dxy    dyz    dz2    dxz  x2-y2    tot
    1  0.014  0.002  0.007  0.005  0.000  0.002  0.017  0.005  0.000  0.051
    2  0.003  0.001  0.002  0.004  0.074  0.052  0.055  0.157  0.025  0.372
    3  0.016  0.005  0.095  0.016  0.000  0.000  0.001  0.001  0.000  0.136
    4  0.016  0.005  0.095  0.016  0.000  0.000  0.001  0.001  0.000  0.136
tot    0.048  0.014  0.199  0.042  0.074  0.055  0.072  0.165  0.025  0.694
 
band    19 # energy    5.45130196 # occ.  1.00000000
 
ion      s     py     pz     px    dxy    dyz    dz2    dxz  x2-y2    tot
    1  0.000  0.021  0.000  0.007  0.004  0.001  0.000  0.000  0.013  0.047
    2  0.000  0.000  0.000  0.000  0.007  0.194  0.000  0.065  0.021  0.287
    3  0.000  0.114  0.000  0.038  0.000  0.002  0.000  0.001  0.000  0.155
    4  0.000  0.114  0.000  0.038  0.000  0.002  0.000  0.001  0.000  0.155
tot    0.000  0.250  0.000  0.083  0.011  0.199  0.000  0.066  0.034  0.645
 
band    20 # energy    6.59787934 # occ.  0.00016119
 
ion      s     py     pz     px    dxy    dyz    dz2    dxz  x2-y2    tot
    1  0.005  0.000  0.000  0.001  0.169  0.053  0.170  0.160  0.056  0.616
    2  0.011  0.000  0.007  0.000  0.005  0.001  0.000  0.004  0.002  0.032
    3  0.004  0.000  0.007  0.000  0.004  0.000  0.003  0.001  0.001  0.021
    4  0.004  0.000  0.007  0.000  0.004  0.000  0.003  0.001  0.001  0.021
tot    0.025  0.001  0.020  0.002  0.182  0.056  0.176  0.167  0.061  0.689
 
band    21 # energy    7.38542405 # occ.  0.00000000
 
ion      s     py     pz     px    dxy    dyz    dz2    dxz  x2-y2    tot
    1  0.004  0.000  0.002  0.000  0.257  0.010  0.345  0.030  0.086  0.733
    2  0.034  0.000  0.001  0.000  0.001  0.000  0.003  0.001  0.000  0.041
    3  0.007  0.002  0.006  0.005  0.000  0.001  0.000  0.003  0.000  0.025
    4  0.007  0.002  0.006  0.005  0.000  0.001  0.000  0.003  0.000  0.025
tot    0.052  0.003  0.016  0.010  0.258  0.012  0.349  0.037  0.086  0.824
 
band    22 # energy    7.42745803 # occ.  0.00000000
 
ion      s     py     pz     px    dxy    dyz    dz2    dxz  x2-y2    tot
    1  0.000  0.001  0.000  0.000  0.211  0.000  0.000  0.000  0.633  0.845
    2  0.000  0.003  0.000  0.001  0.000  0.004  0.000  0.001  0.000  0.009
    3  0.000  0.006  0.000  0.002  0.000  0.001  0.000  0.000  0.001  0.010
    4  0.000  0.006  0.000  0.002  0.000  0.001  0.000  0.000  0.001  0.010
tot    0.000  0.016  0.000  0.005  0.211  0.007  0.000  0.002  0.634  0.876
 
band    23 # energy    7.74930288 # occ.  0.00000000
 
ion      s     py     pz     px    dxy    dyz    dz2    dxz  x2-y2    tot
    1  0.000  0.000  0.000  0.000  0.000  0.554  0.000  0.185  0.001  0.740
    2  0.000  0.017  0.000  0.006  0.001  0.000  0.000  0.000  0.002  0.026
    3  0.000  0.021  0.000  0.007  0.000  0.005  0.000  0.002  0.000  0.035
    4  0.000  0.021  0.000  0.007  0.000  0.005  0.000  0.002  0.000  0.035
tot    0.000  0.060  0.000  0.020  0.001  0.563  0.000  0.188  0.004  0.836
 
band    24 # energy    7.79618830 # occ.  0.00000000
 
ion      s     py     pz     px    dxy    dyz    dz2    dxz  x2-y2    tot
    1  0.012  0.002  0.001  0.007  0.000  0.098  0.217  0.295  0.000  0.632
    2  0.063  0.000  0.000  0.001  0.001  0.000  0.001  0.000  0.000  0.066
    3  0.017  0.002  0.004  0.007  0.001  0.001  0.000  0.004  0.000  0.038
    4  0.017  0.002  0.004  0.007  0.001  0.001  0.000  0.004  0.000  0.038
tot    0.110  0.007  0.010  0.021  0.003  0.101  0.218  0.304  0.001  0.775
 

 k-point     6 :   -0.36842105 0.00000000 0.50000000     weight = 0.02500000

band     1 # energy  -44.23205439 # occ.  1.00000000
 
ion      s     py     pz     px    dxy    dyz    dz2    dxz  x2-y2    tot
    1  0.000  0.000  0.000  0.000  0.000  0.000  0.000  0.000  0.000  0.000
    2  0.000  0.246  0.000  0.749  0.000  0.000  0.000  0.000  0.000  0.995
    3  0.000  0.000  0.000  0.000  0.000  0.000  0.000  0.000  0.000  0.000
    4  0.000  0.000  0.000  0.000  0.000  0.000  0.000  0.000  0.000  0.000
tot    0.000  0.246  0.000  0.749  0.000  0.000  0.000  0.000  0.000  0.995
 
band     2 # energy  -44.23146036 # occ.  1.00000000
 
ion      s     py     pz     px    dxy    dyz    dz2    dxz  x2-y2    tot
    1  0.000  0.000  0.000  0.000  0.000  0.000  0.000  0.000  0.000  0.000
    2  0.000  0.749  0.000  0.246  0.000  0.000  0.000  0.000  0.000  0.995
    3  0.000  0.000  0.000  0.000  0.000  0.000  0.000  0.000  0.000  0.000
    4  0.000  0.000  0.000  0.000  0.000  0.000  0.000  0.000  0.000  0.000
tot    0.000  0.749  0.000  0.246  0.000  0.000  0.000  0.000  0.000  0.995
 
band     3 # energy  -44.22817219 # occ.  1.00000000
 
ion      s     py     pz     px    dxy    dyz    dz2    dxz  x2-y2    tot
    1  0.000  0.000  0.000  0.000  0.000  0.000  0.000  0.000  0.000  0.000
    2  0.000  0.000  0.995  0.000  0.000  0.000  0.000  0.000  0.000  0.995
    3  0.000  0.000  0.000  0.000  0.000  0.000  0.000  0.000  0.000  0.000
    4  0.000  0.000  0.000  0.000  0.000  0.000  0.000  0.000  0.000  0.000
tot    0.000  0.000  0.995  0.000  0.000  0.000  0.000  0.000  0.000  0.995
 
band     4 # energy  -39.85042419 # occ.  1.00000000
 
ion      s     py     pz     px    dxy    dyz    dz2    dxz  x2-y2    tot
    1  0.000  0.000  0.995  0.000  0.000  0.000  0.000  0.000  0.000  0.995
    2  0.000  0.000  0.000  0.000  0.000  0.000  0.000  0.000  0.000  0.000
    3  0.000  0.000  0.000  0.000  0.000  0.000  0.000  0.000  0.000  0.000
    4  0.000  0.000  0.000  0.000  0.000  0.000  0.000  0.000  0.000  0.000
tot    0.000  0.000  0.995  0.000  0.000  0.000  0.000  0.000  0.000  0.995
 
band     5 # energy  -39.84479723 # occ.  1.00000000
 
ion      s     py     pz     px    dxy    dyz    dz2    dxz  x2-y2    tot
    1  0.000  0.246  0.000  0.749  0.000  0.000  0.000  0.000  0.000  0.995
    2  0.000  0.000  0.000  0.000  0.000  0.000  0.000  0.000  0.000  0.000
    3  0.000  0.000  0.000  0.000  0.000  0.000  0.000  0.000  0.000  0.000
    4  0.000  0.000  0.000  0.000  0.000  0.000  0.000  0.000  0.000  0.000
tot    0.000  0.246  0.000  0.749  0.000  0.000  0.000  0.000  0.000  0.995
 
band     6 # energy  -39.84390689 # occ.  1.00000000
 
ion      s     py     pz     px    dxy    dyz    dz2    dxz  x2-y2    tot
    1  0.000  0.749  0.000  0.246  0.000  0.000  0.000  0.000  0.000  0.995
    2  0.000  0.000  0.000  0.000  0.000  0.000  0.000  0.000  0.000  0.000
    3  0.000  0.000  0.000  0.000  0.000  0.000  0.000  0.000  0.000  0.000
    4  0.000  0.000  0.000  0.000  0.000  0.000  0.000  0.000  0.000  0.000
tot    0.000  0.749  0.000  0.246  0.000  0.000  0.000  0.000  0.000  0.996
 
band     7 # energy   -4.84690524 # occ.  1.00000000
 
ion      s     py     pz     px    dxy    dyz    dz2    dxz  x2-y2    tot
    1  0.001  0.001  0.001  0.002  0.000  0.000  0.000  0.001  0.000  0.008
    2  0.008  0.000  0.000  0.001  0.002  0.001  0.000  0.004  0.001  0.018
    3  0.320  0.000  0.000  0.000  0.000  0.000  0.000  0.000  0.000  0.321
    4  0.320  0.000  0.000  0.000  0.000  0.000  0.000  0.000  0.000  0.321
tot    0.649  0.001  0.002  0.004  0.002  0.002  0.000  0.005  0.001  0.667
 
band     8 # energy   -4.83008029 # occ.  1.00000000
 
ion      s     py     pz     px    dxy    dyz    dz2    dxz  x2-y2    tot
    1  0.006  0.000  0.000  0.001  0.001  0.001  0.000  0.002  0.000  0.013
    2  0.002  0.001  0.002  0.003  0.001  0.001  0.000  0.002  0.000  0.010
    3  0.322  0.000  0.000  0.000  0.000  0.000  0.000  0.000  0.000  0.322
    4  0.322  0.000  0.000  0.000  0.000  0.000  0.000  0.000  0.000  0.322
tot    0.651  0.002  0.003  0.005  0.002  0.001  0.000  0.004  0.001  0.668
 
band     9 # energy    1.23228932 # occ.  1.00000000
 
ion      s     py     pz     px    dxy    dyz    dz2    dxz  x2-y2    tot
    1  0.002  0.002  0.006  0.005  0.004  0.002  0.000  0.005  0.001  0.026
    2  0.076  0.000  0.000  0.001  0.041  0.002  0.004  0.007  0.014  0.146
    3  0.010  0.023  0.027  0.070  0.000  0.000  0.000  0.000  0.000  0.131
    4  0.010  0.023  0.027  0.070  0.000  0.000  0.000  0.000  0.000  0.131
tot    0.098  0.049  0.061  0.146  0.045  0.004  0.005  0.012  0.015  0.435
 
band    10 # energy    1.38690106 # occ.  1.00000000
 
ion      s     py     pz     px    dxy    dyz    dz2    dxz  x2-y2    tot
    1  0.054  0.000  0.000  0.000  0.007  0.000  0.001  0.001  0.002  0.065
    2  0.005  0.002  0.009  0.007  0.029  0.011  0.000  0.033  0.010  0.105
    3  0.006  0.024  0.031  0.073  0.000  0.000  0.000  0.000  0.000  0.135
    4  0.006  0.024  0.031  0.073  0.000  0.000  0.000  0.000  0.000  0.135
tot    0.072  0.051  0.070  0.153  0.036  0.011  0.001  0.034  0.012  0.440
 
band    11 # energy    2.67118910 # occ.  1.00000000
 
ion      s     py     pz     px    dxy    dyz    dz2    dxz  x2-y2    tot
    1  0.000  0.004  0.000  0.001  0.000  0.000  0.000  0.000  0.000  0.006
    2  0.000  0.000  0.000  0.000  0.020  0.419  0.000  0.140  0.060  0.639
    3  0.000  0.049  0.000  0.016  0.000  0.000  0.000  0.000  0.000  0.066
    4  0.000  0.049  0.000  0.016  0.000  0.000  0.000  0.000  0.000  0.066
tot    0.000  0.101  0.000  0.034  0.020  0.420  0.000  0.140  0.061  0.776
 
band    12 # energy    2.71827886 # occ.  1.00000000
 
ion      s     py     pz     px    dxy    dyz    dz2    dxz  x2-y2    tot
    1  0.000  0.001  0.008  0.002  0.002  0.000  0.001  0.000  0.001  0.013
    2  0.000  0.001  0.001  0.004  0.077  0.025  0.343  0.076  0.026  0.555
    3  0.001  0.004  0.054  0.011  0.001  0.000  0.000  0.000  0.000  0.070
    4  0.001  0.004  0.054  0.011  0.001  0.000  0.000  0.000  0.000  0.070
tot    0.002  0.009  0.115  0.028  0.080  0.025  0.344  0.076  0.027  0.708
 
band    13 # energy    3.27860754 # occ.  1.00000000
 
ion      s     py     pz     px    dxy    dyz    dz2    dxz  x2-y2    tot
    1  0.000  0.001  0.001  0.003  0.000  0.000  0.003  0.000  0.000  0.008
    2  0.001  0.000  0.002  0.000  0.046  0.129  0.192  0.386  0.015  0.771
    3  0.002  0.001  0.018  0.004  0.000  0.000  0.001  0.000  0.000  0.027
    4  0.002  0.001  0.018  0.004  0.000  0.000  0.001  0.000  0.000  0.027
tot    0.005  0.004  0.038  0.012  0.047  0.129  0.196  0.387  0.016  0.833
 
band    14 # energy    3.33862143 # occ.  1.00000000
 
ion      s     py     pz     px    dxy    dyz    dz2    dxz  x2-y2    tot
    1  0.000  0.000  0.000  0.000  0.000  0.007  0.000  0.002  0.001  0.011
    2  0.000  0.003  0.000  0.001  0.173  0.073  0.000  0.024  0.519  0.793
    3  0.000  0.019  0.000  0.006  0.000  0.000  0.000  0.000  0.000  0.026
    4  0.000  0.019  0.000  0.006  0.000  0.000  0.000  0.000  0.000  0.026
tot    0.000  0.042  0.000  0.014  0.173  0.081  0.000  0.027  0.520  0.857
 
band    15 # energy    3.44150543 # occ.  1.00000000
 
ion      s     py     pz     px    dxy    dyz    dz2    dxz  x2-y2    tot
    1  0.006  0.000  0.000  0.001  0.005  0.006  0.010  0.019  0.002  0.050
    2  0.018  0.000  0.009  0.001  0.285  0.005  0.105  0.015  0.095  0.533
    3  0.002  0.008  0.039  0.023  0.001  0.000  0.000  0.000  0.000  0.074
    4  0.002  0.008  0.039  0.023  0.001  0.000  0.000  0.000  0.000  0.074
tot    0.028  0.016  0.088  0.048  0.293  0.011  0.115  0.034  0.098  0.730
 
band    16 # energy    4.01885109 # occ.  1.00000000
 
ion      s     py     pz     px    dxy    dyz    dz2    dxz  x2-y2    tot
    1  0.000  0.001  0.001  0.003  0.015  0.005  0.021  0.015  0.005  0.067
    2  0.000  0.003  0.010  0.008  0.122  0.001  0.189  0.002  0.041  0.375
    3  0.003  0.005  0.092  0.015  0.001  0.000  0.000  0.000  0.000  0.115
    4  0.003  0.005  0.092  0.015  0.001  0.000  0.000  0.000  0.000  0.115
tot    0.006  0.014  0.195  0.041  0.138  0.006  0.210  0.017  0.046  0.673
 
band    17 # energy    4.11103174 # occ.  1.00000000
 
ion      s     py     pz     px    dxy    dyz    dz2    dxz  x2-y2    tot
    1  0.000  0.000  0.000  0.000  0.005  0.087  0.000  0.029  0.014  0.135
    2  0.000  0.018  0.000  0.006  0.029  0.012  0.000  0.004  0.086  0.155
    3  0.000  0.119  0.000  0.040  0.000  0.000  0.000  0.000  0.001  0.160
    4  0.000  0.119  0.000  0.040  0.000  0.000  0.000  0.000  0.001  0.160
tot    0.000  0.257  0.000  0.086  0.034  0.099  0.000  0.033  0.102  0.610
 
band    18 # energy    5.28401505 # occ.  1.00000000
 
ion      s     py     pz     px    dxy    dyz    dz2    dxz  x2-y2    tot
    1  0.017  0.001  0.007  0.003  0.000  0.002  0.016  0.006  0.000  0.053
    2  0.001  0.002  0.002  0.005  0.062  0.053  0.068  0.158  0.021  0.372
    3  0.015  0.006  0.089  0.019  0.000  0.000  0.001  0.001  0.000  0.133
    4  0.015  0.006  0.089  0.019  0.000  0.000  0.001  0.001  0.000  0.133
tot    0.049  0.016  0.188  0.047  0.062  0.056  0.086  0.167  0.021  0.691
 
band    19 # energy    5.46098840 # occ.  1.00000000
 
ion      s     py     pz     px    dxy    dyz    dz2    dxz  x2-y2    tot
    1  0.000  0.020  0.000  0.007  0.006  0.002  0.000  0.001  0.019  0.055
    2  0.000  0.001  0.000  0.000  0.008  0.184  0.000  0.061  0.025  0.279
    3  0.000  0.114  0.000  0.038  0.000  0.002  0.000  0.001  0.000  0.155
    4  0.000  0.114  0.000  0.038  0.000  0.002  0.000  0.001  0.000  0.155
tot    0.000  0.248  0.000  0.083  0.015  0.191  0.000  0.064  0.044  0.644
 
band    20 # energy    6.61637737 # occ.  0.00001896
 
ion      s     py     pz     px    dxy    dyz    dz2    dxz  x2-y2    tot
    1  0.008  0.000  0.000  0.001  0.192  0.048  0.151  0.145  0.064  0.610
    2  0.016  0.000  0.006  0.000  0.006  0.001  0.000  0.004  0.002  0.035
    3  0.005  0.000  0.006  0.000  0.004  0.000  0.003  0.001  0.001  0.021
    4  0.005  0.000  0.006  0.000  0.004  0.000  0.003  0.001  0.001  0.021
tot    0.034  0.001  0.019  0.002  0.206  0.051  0.157  0.152  0.069  0.688
 
band    21 # energy    7.34198918 # occ.  0.00000000
 
ion      s     py     pz     px    dxy    dyz    dz2    dxz  x2-y2    tot
    1  0.001  0.000  0.002  0.000  0.237  0.025  0.291  0.076  0.079  0.713
    2  0.042  0.000  0.001  0.000  0.001  0.000  0.003  0.000  0.000  0.049
    3  0.010  0.002  0.006  0.005  0.000  0.001  0.000  0.003  0.000  0.028
    4  0.010  0.002  0.006  0.005  0.000  0.001  0.000  0.003  0.000  0.028
tot    0.064  0.003  0.014  0.010  0.239  0.028  0.296  0.084  0.080  0.817
 
band    22 # energy    7.44596315 # occ.  0.00000000
 
ion      s     py     pz     px    dxy    dyz    dz2    dxz  x2-y2    tot
    1  0.000  0.002  0.000  0.001  0.207  0.004  0.000  0.001  0.622  0.837
    2  0.000  0.002  0.000  0.001  0.000  0.006  0.000  0.002  0.000  0.011
    3  0.000  0.008  0.000  0.003  0.000  0.001  0.000  0.000  0.001  0.013
    4  0.000  0.008  0.000  0.003  0.000  0.001  0.000  0.000  0.001  0.013
tot    0.000  0.020  0.000  0.007  0.208  0.013  0.000  0.004  0.623  0.875
 
band    23 # energy    7.75298913 # occ.  0.00000000
 
ion      s     py     pz     px    dxy    dyz    dz2    dxz  x2-y2    tot
    1  0.000  0.000  0.000  0.000  0.000  0.549  0.000  0.183  0.000  0.732
    2  0.000  0.017  0.000  0.006  0.001  0.000  0.000  0.000  0.003  0.027
    3  0.000  0.023  0.000  0.008  0.000  0.005  0.000  0.002  0.001  0.037
    4  0.000  0.023  0.000  0.008  0.000  0.005  0.000  0.002  0.001  0.037
tot    0.000  0.063  0.000  0.021  0.001  0.558  0.000  0.186  0.004  0.834
 
band    24 # energy    7.77992277 # occ.  0.00000000
 
ion      s     py     pz     px    dxy    dyz    dz2    dxz  x2-y2    tot
    1  0.008  0.002  0.001  0.006  0.002  0.099  0.298  0.296  0.001  0.712
    2  0.043  0.000  0.000  0.000  0.001  0.000  0.001  0.000  0.000  0.045
    3  0.013  0.002  0.007  0.006  0.001  0.001  0.000  0.003  0.000  0.033
    4  0.013  0.002  0.007  0.006  0.001  0.001  0.000  0.003  0.000  0.033
tot    0.077  0.006  0.014  0.019  0.004  0.101  0.298  0.302  0.001  0.822
 

 k-point     7 :   -0.34210526 0.00000000 0.50000000     weight = 0.02500000

band     1 # energy  -44.23198976 # occ.  1.00000000
 
ion      s     py     pz     px    dxy    dyz    dz2    dxz  x2-y2    tot
    1  0.000  0.000  0.000  0.000  0.000  0.000  0.000  0.000  0.000  0.000
    2  0.000  0.246  0.000  0.749  0.000  0.000  0.000  0.000  0.000  0.995
    3  0.000  0.000  0.000  0.000  0.000  0.000  0.000  0.000  0.000  0.000
    4  0.000  0.000  0.000  0.000  0.000  0.000  0.000  0.000  0.000  0.000
tot    0.000  0.246  0.000  0.749  0.000  0.000  0.000  0.000  0.000  0.995
 
band     2 # energy  -44.23144784 # occ.  1.00000000
 
ion      s     py     pz     px    dxy    dyz    dz2    dxz  x2-y2    tot
    1  0.000  0.000  0.000  0.000  0.000  0.000  0.000  0.000  0.000  0.000
    2  0.000  0.749  0.000  0.246  0.000  0.000  0.000  0.000  0.000  0.995
    3  0.000  0.000  0.000  0.000  0.000  0.000  0.000  0.000  0.000  0.000
    4  0.000  0.000  0.000  0.000  0.000  0.000  0.000  0.000  0.000  0.000
tot    0.000  0.749  0.000  0.246  0.000  0.000  0.000  0.000  0.000  0.995
 
band     3 # energy  -44.22818734 # occ.  1.00000000
 
ion      s     py     pz     px    dxy    dyz    dz2    dxz  x2-y2    tot
    1  0.000  0.000  0.000  0.000  0.000  0.000  0.000  0.000  0.000  0.000
    2  0.000  0.000  0.995  0.000  0.000  0.000  0.000  0.000  0.000  0.995
    3  0.000  0.000  0.000  0.000  0.000  0.000  0.000  0.000  0.000  0.000
    4  0.000  0.000  0.000  0.000  0.000  0.000  0.000  0.000  0.000  0.000
tot    0.000  0.000  0.995  0.000  0.000  0.000  0.000  0.000  0.000  0.995
 
band     4 # energy  -39.85044606 # occ.  1.00000000
 
ion      s     py     pz     px    dxy    dyz    dz2    dxz  x2-y2    tot
    1  0.000  0.000  0.995  0.000  0.000  0.000  0.000  0.000  0.000  0.995
    2  0.000  0.000  0.000  0.000  0.000  0.000  0.000  0.000  0.000  0.000
    3  0.000  0.000  0.000  0.000  0.000  0.000  0.000  0.000  0.000  0.000
    4  0.000  0.000  0.000  0.000  0.000  0.000  0.000  0.000  0.000  0.000
tot    0.000  0.000  0.995  0.000  0.000  0.000  0.000  0.000  0.000  0.995
 
band     5 # energy  -39.84470403 # occ.  1.00000000
 
ion      s     py     pz     px    dxy    dyz    dz2    dxz  x2-y2    tot
    1  0.000  0.246  0.000  0.749  0.000  0.000  0.000  0.000  0.000  0.995
    2  0.000  0.000  0.000  0.000  0.000  0.000  0.000  0.000  0.000  0.000
    3  0.000  0.000  0.000  0.000  0.000  0.000  0.000  0.000  0.000  0.000
    4  0.000  0.000  0.000  0.000  0.000  0.000  0.000  0.000  0.000  0.000
tot    0.000  0.246  0.000  0.749  0.000  0.000  0.000  0.000  0.000  0.995
 
band     6 # energy  -39.84388764 # occ.  1.00000000
 
ion      s     py     pz     px    dxy    dyz    dz2    dxz  x2-y2    tot
    1  0.000  0.749  0.000  0.246  0.000  0.000  0.000  0.000  0.000  0.995
    2  0.000  0.000  0.000  0.000  0.000  0.000  0.000  0.000  0.000  0.000
    3  0.000  0.000  0.000  0.000  0.000  0.000  0.000  0.000  0.000  0.000
    4  0.000  0.000  0.000  0.000  0.000  0.000  0.000  0.000  0.000  0.000
tot    0.000  0.749  0.000  0.246  0.000  0.000  0.000  0.000  0.000  0.996
 
band     7 # energy   -4.90440115 # occ.  1.00000000
 
ion      s     py     pz     px    dxy    dyz    dz2    dxz  x2-y2    tot
    1  0.001  0.001  0.002  0.002  0.001  0.000  0.000  0.001  0.000  0.007
    2  0.011  0.001  0.000  0.002  0.001  0.001  0.000  0.003  0.000  0.019
    3  0.316  0.000  0.000  0.000  0.000  0.000  0.000  0.000  0.000  0.317
    4  0.316  0.000  0.000  0.000  0.000  0.000  0.000  0.000  0.000  0.317
tot    0.644  0.001  0.003  0.004  0.002  0.001  0.000  0.004  0.001  0.661
 
band     8 # energy   -4.88787913 # occ.  1.00000000
 
ion      s     py     pz     px    dxy    dyz    dz2    dxz  x2-y2    tot
    1  0.008  0.000  0.000  0.001  0.001  0.001  0.000  0.002  0.000  0.014
    2  0.001  0.001  0.002  0.002  0.001  0.001  0.000  0.002  0.000  0.010
    3  0.318  0.000  0.000  0.000  0.000  0.000  0.000  0.000  0.000  0.319
    4  0.318  0.000  0.000  0.000  0.000  0.000  0.000  0.000  0.000  0.319
tot    0.646  0.001  0.003  0.004  0.002  0.001  0.000  0.004  0.001  0.662
 
band     9 # energy    1.36728561 # occ.  1.00000000
 
ion      s     py     pz     px    dxy    dyz    dz2    dxz  x2-y2    tot
    1  0.005  0.002  0.005  0.005  0.004  0.002  0.000  0.007  0.001  0.031
    2  0.069  0.000  0.000  0.001  0.056  0.001  0.003  0.003  0.019  0.152
    3  0.012  0.022  0.032  0.067  0.000  0.000  0.000  0.000  0.000  0.134
    4  0.012  0.022  0.032  0.067  0.000  0.000  0.000  0.000  0.000  0.134
tot    0.099  0.046  0.069  0.139  0.060  0.003  0.003  0.010  0.020  0.450
 
band    10 # energy    1.47639260 # occ.  1.00000000
 
ion      s     py     pz     px    dxy    dyz    dz2    dxz  x2-y2    tot
    1  0.048  0.000  0.000  0.001  0.008  0.000  0.000  0.000  0.003  0.061
    2  0.011  0.002  0.007  0.005  0.031  0.016  0.000  0.049  0.010  0.132
    3  0.009  0.023  0.033  0.069  0.000  0.000  0.000  0.000  0.000  0.135
    4  0.009  0.023  0.033  0.069  0.000  0.000  0.000  0.000  0.000  0.135
tot    0.077  0.048  0.074  0.144  0.040  0.016  0.001  0.049  0.013  0.462
 
band    11 # energy    2.68536675 # occ.  1.00000000
 
ion      s     py     pz     px    dxy    dyz    dz2    dxz  x2-y2    tot
    1  0.000  0.003  0.000  0.001  0.000  0.000  0.000  0.000  0.001  0.005
    2  0.000  0.000  0.000  0.000  0.024  0.411  0.000  0.137  0.073  0.645
    3  0.000  0.048  0.000  0.016  0.000  0.000  0.000  0.000  0.000  0.065
    4  0.000  0.048  0.000  0.016  0.000  0.000  0.000  0.000  0.000  0.065
tot    0.000  0.099  0.000  0.033  0.025  0.412  0.000  0.137  0.074  0.780
 
band    12 # energy    2.73564410 # occ.  1.00000000
 
ion      s     py     pz     px    dxy    dyz    dz2    dxz  x2-y2    tot
    1  0.000  0.000  0.008  0.001  0.002  0.000  0.000  0.000  0.001  0.013
    2  0.000  0.002  0.000  0.005  0.042  0.021  0.415  0.062  0.014  0.562
    3  0.001  0.004  0.050  0.011  0.001  0.000  0.000  0.000  0.000  0.067
    4  0.001  0.004  0.050  0.011  0.001  0.000  0.000  0.000  0.000  0.067
tot    0.002  0.009  0.110  0.028  0.045  0.021  0.416  0.062  0.015  0.708
 
band    13 # energy    3.29752419 # occ.  1.00000000
 
ion      s     py     pz     px    dxy    dyz    dz2    dxz  x2-y2    tot
    1  0.000  0.001  0.000  0.002  0.002  0.000  0.002  0.000  0.001  0.007
    2  0.003  0.000  0.001  0.000  0.094  0.132  0.123  0.397  0.031  0.784
    3  0.002  0.001  0.016  0.003  0.000  0.000  0.001  0.000  0.000  0.024
    4  0.002  0.001  0.016  0.003  0.000  0.000  0.001  0.000  0.000  0.024
tot    0.007  0.003  0.034  0.008  0.097  0.133  0.127  0.398  0.032  0.839
 
band    14 # energy    3.30591331 # occ.  1.00000000
 
ion      s     py     pz     px    dxy    dyz    dz2    dxz  x2-y2    tot
    1  0.000  0.000  0.000  0.000  0.000  0.007  0.000  0.002  0.001  0.012
    2  0.000  0.003  0.000  0.001  0.166  0.088  0.000  0.029  0.497  0.784
    3  0.000  0.020  0.000  0.007  0.000  0.000  0.000  0.000  0.000  0.027
    4  0.000  0.020  0.000  0.007  0.000  0.000  0.000  0.000  0.000  0.027
tot    0.000  0.044  0.000  0.015  0.166  0.096  0.000  0.032  0.499  0.851
 
band    15 # energy    3.47101000 # occ.  1.00000000
 
ion      s     py     pz     px    dxy    dyz    dz2    dxz  x2-y2    tot
    1  0.006  0.001  0.000  0.003  0.003  0.007  0.015  0.020  0.001  0.056
    2  0.015  0.000  0.013  0.000  0.246  0.000  0.090  0.000  0.082  0.447
    3  0.003  0.011  0.042  0.034  0.001  0.000  0.000  0.000  0.000  0.091
    4  0.003  0.011  0.042  0.034  0.001  0.000  0.000  0.000  0.000  0.091
tot    0.027  0.024  0.097  0.071  0.251  0.007  0.105  0.021  0.084  0.686
 
band    16 # energy    4.05077070 # occ.  1.00000000
 
ion      s     py     pz     px    dxy    dyz    dz2    dxz  x2-y2    tot
    1  0.002  0.001  0.001  0.004  0.012  0.003  0.022  0.010  0.004  0.059
    2  0.000  0.002  0.009  0.007  0.141  0.003  0.185  0.010  0.047  0.405
    3  0.004  0.004  0.087  0.013  0.000  0.000  0.000  0.000  0.000  0.110
    4  0.004  0.004  0.087  0.013  0.000  0.000  0.000  0.000  0.000  0.110
tot    0.011  0.012  0.185  0.037  0.154  0.007  0.208  0.020  0.051  0.685
 
band    17 # energy    4.17793833 # occ.  1.00000000
 
ion      s     py     pz     px    dxy    dyz    dz2    dxz  x2-y2    tot
    1  0.000  0.000  0.000  0.000  0.006  0.088  0.000  0.029  0.018  0.141
    2  0.000  0.017  0.000  0.006  0.029  0.015  0.000  0.005  0.088  0.160
    3  0.000  0.118  0.000  0.039  0.000  0.000  0.000  0.000  0.001  0.159
    4  0.000  0.118  0.000  0.039  0.000  0.000  0.000  0.000  0.001  0.159
tot    0.000  0.254  0.000  0.085  0.036  0.103  0.000  0.034  0.107  0.618
 
band    18 # energy    5.18480930 # occ.  1.00000000
 
ion      s     py     pz     px    dxy    dyz    dz2    dxz  x2-y2    tot
    1  0.020  0.001  0.008  0.002  0.000  0.002  0.013  0.006  0.000  0.052
    2  0.000  0.002  0.001  0.007  0.049  0.052  0.088  0.157  0.016  0.373
    3  0.013  0.008  0.084  0.024  0.000  0.001  0.001  0.002  0.000  0.132
    4  0.013  0.008  0.084  0.024  0.000  0.001  0.001  0.002  0.000  0.132
tot    0.047  0.019  0.178  0.056  0.049  0.055  0.102  0.166  0.016  0.688
 
band    19 # energy    5.47628084 # occ.  1.00000000
 
ion      s     py     pz     px    dxy    dyz    dz2    dxz  x2-y2    tot
    1  0.000  0.019  0.000  0.006  0.009  0.003  0.000  0.001  0.026  0.064
    2  0.000  0.001  0.000  0.000  0.010  0.173  0.000  0.058  0.029  0.271
    3  0.000  0.114  0.000  0.038  0.000  0.002  0.000  0.001  0.000  0.155
    4  0.000  0.114  0.000  0.038  0.000  0.002  0.000  0.001  0.000  0.155
tot    0.000  0.247  0.000  0.082  0.018  0.180  0.000  0.060  0.055  0.644
 
band    20 # energy    6.63578129 # occ.  0.00000152
 
ion      s     py     pz     px    dxy    dyz    dz2    dxz  x2-y2    tot
    1  0.010  0.000  0.000  0.001  0.216  0.043  0.137  0.129  0.072  0.608
    2  0.019  0.000  0.006  0.000  0.005  0.002  0.000  0.005  0.002  0.038
    3  0.006  0.000  0.005  0.000  0.004  0.001  0.002  0.002  0.001  0.022
    4  0.006  0.000  0.005  0.000  0.004  0.001  0.002  0.002  0.001  0.022
tot    0.041  0.000  0.016  0.001  0.230  0.045  0.141  0.136  0.077  0.689
 
band    21 # energy    7.29838968 # occ.  0.00000000
 
ion      s     py     pz     px    dxy    dyz    dz2    dxz  x2-y2    tot
    1  0.000  0.000  0.001  0.000  0.217  0.043  0.249  0.129  0.072  0.711
    2  0.046  0.000  0.001  0.000  0.001  0.000  0.003  0.000  0.000  0.051
    3  0.013  0.001  0.005  0.004  0.000  0.001  0.001  0.004  0.000  0.028
    4  0.013  0.001  0.005  0.004  0.000  0.001  0.001  0.004  0.000  0.028
tot    0.072  0.003  0.012  0.008  0.218  0.045  0.253  0.136  0.073  0.819
 
band    22 # energy    7.46462269 # occ.  0.00000000
 
ion      s     py     pz     px    dxy    dyz    dz2    dxz  x2-y2    tot
    1  0.000  0.002  0.000  0.001  0.201  0.015  0.000  0.005  0.604  0.828
    2  0.000  0.002  0.000  0.001  0.000  0.008  0.000  0.003  0.000  0.013
    3  0.000  0.011  0.000  0.004  0.000  0.001  0.000  0.000  0.001  0.016
    4  0.000  0.011  0.000  0.004  0.000  0.001  0.000  0.000  0.001  0.016
tot    0.000  0.025  0.000  0.008  0.202  0.025  0.000  0.008  0.605  0.874
 
band    23 # energy    7.75943728 # occ.  0.00000000
 
ion      s     py     pz     px    dxy    dyz    dz2    dxz  x2-y2    tot
    1  0.000  0.000  0.000  0.000  0.002  0.537  0.000  0.179  0.005  0.723
    2  0.000  0.017  0.000  0.006  0.001  0.000  0.000  0.000  0.004  0.029
    3  0.000  0.025  0.000  0.008  0.000  0.005  0.000  0.002  0.001  0.040
    4  0.000  0.025  0.000  0.008  0.000  0.005  0.000  0.002  0.001  0.040
tot    0.000  0.067  0.000  0.022  0.004  0.546  0.000  0.182  0.011  0.832
 
band    24 # energy    7.76659523 # occ.  0.00000000
 
ion      s     py     pz     px    dxy    dyz    dz2    dxz  x2-y2    tot
    1  0.004  0.002  0.000  0.005  0.007  0.095  0.361  0.284  0.002  0.760
    2  0.029  0.000  0.000  0.000  0.000  0.000  0.000  0.000  0.000  0.030
    3  0.009  0.002  0.009  0.007  0.000  0.001  0.000  0.002  0.000  0.031
    4  0.009  0.002  0.009  0.007  0.000  0.001  0.000  0.002  0.000  0.031
tot    0.051  0.006  0.019  0.019  0.007  0.096  0.362  0.288  0.002  0.851
 

 k-point     8 :   -0.31578947 0.00000000 0.50000000     weight = 0.02500000

band     1 # energy  -44.23193678 # occ.  1.00000000
 
ion      s     py     pz     px    dxy    dyz    dz2    dxz  x2-y2    tot
    1  0.000  0.000  0.000  0.000  0.000  0.000  0.000  0.000  0.000  0.000
    2  0.000  0.246  0.000  0.749  0.000  0.000  0.000  0.000  0.000  0.995
    3  0.000  0.000  0.000  0.000  0.000  0.000  0.000  0.000  0.000  0.000
    4  0.000  0.000  0.000  0.000  0.000  0.000  0.000  0.000  0.000  0.000
tot    0.000  0.246  0.000  0.749  0.000  0.000  0.000  0.000  0.000  0.995
 
band     2 # energy  -44.23143136 # occ.  1.00000000
 
ion      s     py     pz     px    dxy    dyz    dz2    dxz  x2-y2    tot
    1  0.000  0.000  0.000  0.000  0.000  0.000  0.000  0.000  0.000  0.000
    2  0.000  0.749  0.000  0.246  0.000  0.000  0.000  0.000  0.000  0.995
    3  0.000  0.000  0.000  0.000  0.000  0.000  0.000  0.000  0.000  0.000
    4  0.000  0.000  0.000  0.000  0.000  0.000  0.000  0.000  0.000  0.000
tot    0.000  0.749  0.000  0.246  0.000  0.000  0.000  0.000  0.000  0.995
 
band     3 # energy  -44.22820404 # occ.  1.00000000
 
ion      s     py     pz     px    dxy    dyz    dz2    dxz  x2-y2    tot
    1  0.000  0.000  0.000  0.000  0.000  0.000  0.000  0.000  0.000  0.000
    2  0.000  0.000  0.995  0.000  0.000  0.000  0.000  0.000  0.000  0.995
    3  0.000  0.000  0.000  0.000  0.000  0.000  0.000  0.000  0.000  0.000
    4  0.000  0.000  0.000  0.000  0.000  0.000  0.000  0.000  0.000  0.000
tot    0.000  0.000  0.995  0.000  0.000  0.000  0.000  0.000  0.000  0.995
 
band     4 # energy  -39.85047130 # occ.  1.00000000
 
ion      s     py     pz     px    dxy    dyz    dz2    dxz  x2-y2    tot
    1  0.000  0.000  0.995  0.000  0.000  0.000  0.000  0.000  0.000  0.995
    2  0.000  0.000  0.000  0.000  0.000  0.000  0.000  0.000  0.000  0.000
    3  0.000  0.000  0.000  0.000  0.000  0.000  0.000  0.000  0.000  0.000
    4  0.000  0.000  0.000  0.000  0.000  0.000  0.000  0.000  0.000  0.000
tot    0.000  0.000  0.995  0.000  0.000  0.000  0.000  0.000  0.000  0.995
 
band     5 # energy  -39.84461949 # occ.  1.00000000
 
ion      s     py     pz     px    dxy    dyz    dz2    dxz  x2-y2    tot
    1  0.000  0.246  0.000  0.750  0.000  0.000  0.000  0.000  0.000  0.995
    2  0.000  0.000  0.000  0.000  0.000  0.000  0.000  0.000  0.000  0.000
    3  0.000  0.000  0.000  0.000  0.000  0.000  0.000  0.000  0.000  0.000
    4  0.000  0.000  0.000  0.000  0.000  0.000  0.000  0.000  0.000  0.000
tot    0.000  0.246  0.000  0.750  0.000  0.000  0.000  0.000  0.000  0.995
 
band     6 # energy  -39.84386286 # occ.  1.00000000
 
ion      s     py     pz     px    dxy    dyz    dz2    dxz  x2-y2    tot
    1  0.000  0.750  0.000  0.246  0.000  0.000  0.000  0.000  0.000  0.995
    2  0.000  0.000  0.000  0.000  0.000  0.000  0.000  0.000  0.000  0.000
    3  0.000  0.000  0.000  0.000  0.000  0.000  0.000  0.000  0.000  0.000
    4  0.000  0.000  0.000  0.000  0.000  0.000  0.000  0.000  0.000  0.000
tot    0.000  0.750  0.000  0.246  0.000  0.000  0.000  0.000  0.000  0.996
 
band     7 # energy   -4.96713401 # occ.  1.00000000
 
ion      s     py     pz     px    dxy    dyz    dz2    dxz  x2-y2    tot
    1  0.001  0.000  0.002  0.001  0.001  0.001  0.000  0.002  0.000  0.007
    2  0.014  0.001  0.000  0.002  0.001  0.001  0.000  0.002  0.000  0.020
    3  0.313  0.000  0.001  0.000  0.000  0.000  0.000  0.000  0.000  0.314
    4  0.313  0.000  0.001  0.000  0.000  0.000  0.000  0.000  0.000  0.314
tot    0.640  0.001  0.003  0.004  0.002  0.001  0.000  0.003  0.001  0.655
 
band     8 # energy   -4.94927440 # occ.  1.00000000
 
ion      s     py     pz     px    dxy    dyz    dz2    dxz  x2-y2    tot
    1  0.010  0.001  0.000  0.002  0.001  0.000  0.000  0.001  0.000  0.015
    2  0.001  0.000  0.003  0.001  0.001  0.001  0.000  0.003  0.000  0.010
    3  0.315  0.000  0.001  0.000  0.000  0.000  0.000  0.000  0.000  0.316
    4  0.315  0.000  0.001  0.000  0.000  0.000  0.000  0.000  0.000  0.316
tot    0.641  0.001  0.004  0.004  0.002  0.001  0.000  0.004  0.001  0.657
 
band     9 # energy    1.50616352 # occ.  1.00000000
 
ion      s     py     pz     px    dxy    dyz    dz2    dxz  x2-y2    tot
    1  0.017  0.001  0.003  0.003  0.003  0.003  0.000  0.008  0.001  0.038
    2  0.047  0.001  0.001  0.002  0.090  0.000  0.001  0.001  0.030  0.173
    3  0.013  0.020  0.039  0.060  0.000  0.000  0.000  0.000  0.000  0.133
    4  0.013  0.020  0.039  0.060  0.000  0.000  0.000  0.000  0.000  0.133
tot    0.091  0.042  0.082  0.126  0.092  0.003  0.002  0.009  0.031  0.477
 
band    10 # energy    1.58019421 # occ.  1.00000000
 
ion      s     py     pz     px    dxy    dyz    dz2    dxz  x2-y2    tot
    1  0.033  0.001  0.001  0.002  0.012  0.000  0.000  0.001  0.004  0.053
    2  0.033  0.001  0.004  0.003  0.016  0.021  0.000  0.063  0.005  0.147
    3  0.013  0.022  0.036  0.067  0.000  0.000  0.000  0.000  0.000  0.138
    4  0.013  0.022  0.036  0.067  0.000  0.000  0.000  0.000  0.000  0.138
tot    0.091  0.046  0.077  0.138  0.029  0.021  0.000  0.064  0.010  0.475
 
band    11 # energy    2.69953442 # occ.  1.00000000
 
ion      s     py     pz     px    dxy    dyz    dz2    dxz  x2-y2    tot
    1  0.000  0.003  0.000  0.001  0.000  0.000  0.000  0.000  0.001  0.005
    2  0.000  0.000  0.000  0.000  0.030  0.399  0.000  0.133  0.091  0.652
    3  0.000  0.047  0.000  0.016  0.000  0.000  0.000  0.000  0.001  0.063
    4  0.000  0.047  0.000  0.016  0.000  0.000  0.000  0.000  0.001  0.063
tot    0.000  0.096  0.000  0.032  0.031  0.399  0.000  0.133  0.092  0.784
 
band    12 # energy    2.73930391 # occ.  1.00000000
 
ion      s     py     pz     px    dxy    dyz    dz2    dxz  x2-y2    tot
    1  0.000  0.000  0.009  0.000  0.001  0.000  0.000  0.000  0.000  0.012
    2  0.000  0.002  0.000  0.006  0.018  0.018  0.471  0.053  0.006  0.572
    3  0.001  0.004  0.046  0.011  0.001  0.000  0.001  0.000  0.000  0.064
    4  0.001  0.004  0.046  0.011  0.001  0.000  0.001  0.000  0.000  0.064
tot    0.002  0.010  0.102  0.029  0.020  0.018  0.472  0.053  0.007  0.711
 
band    13 # energy    3.27797082 # occ.  1.00000000
 
ion      s     py     pz     px    dxy    dyz    dz2    dxz  x2-y2    tot
    1  0.000  0.000  0.000  0.000  0.001  0.007  0.000  0.002  0.002  0.011
    2  0.000  0.003  0.000  0.001  0.158  0.108  0.000  0.036  0.475  0.781
    3  0.000  0.020  0.000  0.007  0.000  0.000  0.000  0.000  0.000  0.028
    4  0.000  0.020  0.000  0.007  0.000  0.000  0.000  0.000  0.000  0.028
tot    0.000  0.044  0.000  0.015  0.159  0.116  0.000  0.039  0.477  0.848
 
band    14 # energy    3.30957929 # occ.  1.00000000
 
ion      s     py     pz     px    dxy    dyz    dz2    dxz  x2-y2    tot
    1  0.000  0.000  0.000  0.001  0.002  0.000  0.001  0.001  0.001  0.008
    2  0.006  0.000  0.001  0.000  0.155  0.125  0.086  0.376  0.052  0.801
    3  0.002  0.001  0.014  0.002  0.000  0.000  0.001  0.000  0.000  0.020
    4  0.002  0.001  0.014  0.002  0.000  0.000  0.001  0.000  0.000  0.020
tot    0.011  0.002  0.028  0.005  0.158  0.126  0.089  0.377  0.053  0.848
 
band    15 # energy    3.55038009 # occ.  1.00000000
 
ion      s     py     pz     px    dxy    dyz    dz2    dxz  x2-y2    tot
    1  0.006  0.002  0.000  0.006  0.001  0.007  0.022  0.020  0.000  0.065
    2  0.012  0.000  0.018  0.000  0.177  0.002  0.061  0.007  0.059  0.336
    3  0.003  0.015  0.048  0.046  0.001  0.000  0.000  0.000  0.000  0.114
    4  0.003  0.015  0.048  0.046  0.001  0.000  0.000  0.000  0.000  0.114
tot    0.022  0.033  0.114  0.098  0.180  0.009  0.084  0.028  0.060  0.629
 
band    16 # energy    4.06165678 # occ.  1.00000000
 
ion      s     py     pz     px    dxy    dyz    dz2    dxz  x2-y2    tot
    1  0.005  0.001  0.001  0.004  0.008  0.002  0.022  0.005  0.003  0.051
    2  0.000  0.002  0.008  0.006  0.170  0.009  0.174  0.027  0.057  0.452
    3  0.007  0.004  0.079  0.011  0.000  0.000  0.000  0.000  0.000  0.102
    4  0.007  0.004  0.079  0.011  0.000  0.000  0.000  0.000  0.000  0.102
tot    0.019  0.010  0.168  0.031  0.179  0.011  0.197  0.032  0.060  0.706
 
band    17 # energy    4.24339562 # occ.  1.00000000
 
ion      s     py     pz     px    dxy    dyz    dz2    dxz  x2-y2    tot
    1  0.000  0.000  0.000  0.000  0.007  0.089  0.000  0.030  0.022  0.149
    2  0.000  0.016  0.000  0.005  0.028  0.018  0.000  0.006  0.085  0.158
    3  0.000  0.118  0.000  0.039  0.000  0.000  0.000  0.000  0.001  0.159
    4  0.000  0.118  0.000  0.039  0.000  0.000  0.000  0.000  0.001  0.159
tot    0.000  0.253  0.000  0.084  0.036  0.107  0.000  0.036  0.108  0.625
 
band    18 # energy    5.10218279 # occ.  1.00000000
 
ion      s     py     pz     px    dxy    dyz    dz2    dxz  x2-y2    tot
    1  0.021  0.000  0.009  0.000  0.000  0.002  0.009  0.006  0.000  0.048
    2  0.000  0.003  0.001  0.008  0.036  0.050  0.112  0.150  0.012  0.372
    3  0.012  0.010  0.079  0.029  0.000  0.001  0.001  0.002  0.000  0.133
    4  0.012  0.010  0.079  0.029  0.000  0.001  0.001  0.002  0.000  0.133
tot    0.044  0.022  0.168  0.067  0.037  0.053  0.122  0.159  0.012  0.685
 
band    19 # energy    5.49920153 # occ.  1.00000000
 
ion      s     py     pz     px    dxy    dyz    dz2    dxz  x2-y2    tot
    1  0.000  0.018  0.000  0.006  0.011  0.005  0.000  0.002  0.032  0.073
    2  0.000  0.001  0.000  0.000  0.012  0.160  0.000  0.053  0.035  0.261
    3  0.000  0.114  0.000  0.038  0.000  0.002  0.000  0.001  0.000  0.155
    4  0.000  0.114  0.000  0.038  0.000  0.002  0.000  0.001  0.000  0.155
tot    0.000  0.246  0.000  0.082  0.022  0.169  0.000  0.056  0.067  0.644
 
band    20 # energy    6.65825358 # occ.  0.00000006
 
ion      s     py     pz     px    dxy    dyz    dz2    dxz  x2-y2    tot
    1  0.011  0.000  0.000  0.001  0.239  0.038  0.127  0.114  0.080  0.610
    2  0.022  0.000  0.005  0.000  0.005  0.002  0.000  0.005  0.002  0.040
    3  0.007  0.000  0.005  0.000  0.004  0.001  0.002  0.002  0.001  0.021
    4  0.007  0.000  0.005  0.000  0.004  0.001  0.002  0.002  0.001  0.021
tot    0.047  0.000  0.014  0.001  0.252  0.041  0.131  0.122  0.084  0.693
 
band    21 # energy    7.26092650 # occ.  0.00000000
 
ion      s     py     pz     px    dxy    dyz    dz2    dxz  x2-y2    tot
    1  0.000  0.000  0.001  0.000  0.199  0.059  0.216  0.178  0.066  0.719
    2  0.046  0.000  0.001  0.000  0.001  0.000  0.002  0.000  0.000  0.051
    3  0.014  0.001  0.004  0.003  0.000  0.001  0.001  0.004  0.000  0.028
    4  0.014  0.001  0.004  0.003  0.000  0.001  0.001  0.004  0.000  0.028
tot    0.075  0.002  0.009  0.006  0.200  0.062  0.219  0.186  0.067  0.825
 
band    22 # energy    7.48029840 # occ.  0.00000000
 
ion      s     py     pz     px    dxy    dyz    dz2    dxz  x2-y2    tot
    1  0.000  0.003  0.000  0.001  0.191  0.039  0.000  0.013  0.572  0.817
    2  0.000  0.001  0.000  0.000  0.000  0.010  0.000  0.003  0.001  0.016
    3  0.000  0.013  0.000  0.004  0.000  0.001  0.000  0.000  0.001  0.020
    4  0.000  0.013  0.000  0.004  0.000  0.001  0.000  0.000  0.001  0.020
tot    0.000  0.030  0.000  0.010  0.191  0.050  0.000  0.017  0.574  0.872
 
band    23 # energy    7.75047429 # occ.  0.00000000
 
ion      s     py     pz     px    dxy    dyz    dz2    dxz  x2-y2    tot
    1  0.002  0.002  0.000  0.005  0.011  0.089  0.407  0.267  0.004  0.785
    2  0.020  0.000  0.000  0.000  0.000  0.000  0.000  0.000  0.000  0.020
    3  0.006  0.003  0.011  0.008  0.000  0.000  0.000  0.001  0.000  0.031
    4  0.006  0.003  0.011  0.008  0.000  0.000  0.000  0.001  0.000  0.031
tot    0.034  0.007  0.023  0.021  0.011  0.090  0.407  0.270  0.004  0.867
 
band    24 # energy    7.77059036 # occ.  0.00000000
 
ion      s     py     pz     px    dxy    dyz    dz2    dxz  x2-y2    tot
    1  0.000  0.000  0.000  0.000  0.008  0.511  0.000  0.170  0.023  0.712
    2  0.000  0.017  0.000  0.006  0.002  0.000  0.000  0.000  0.005  0.030
    3  0.000  0.027  0.000  0.009  0.000  0.005  0.000  0.002  0.001  0.043
    4  0.000  0.027  0.000  0.009  0.000  0.005  0.000  0.002  0.001  0.043
tot    0.000  0.072  0.000  0.024  0.010  0.521  0.000  0.174  0.029  0.829
 

 k-point     9 :   -0.28947368 0.00000000 0.50000000     weight = 0.02500000

band     1 # energy  -44.23186558 # occ.  1.00000000
 
ion      s     py     pz     px    dxy    dyz    dz2    dxz  x2-y2    tot
    1  0.000  0.000  0.000  0.000  0.000  0.000  0.000  0.000  0.000  0.000
    2  0.000  0.246  0.000  0.750  0.000  0.000  0.000  0.000  0.000  0.995
    3  0.000  0.000  0.000  0.000  0.000  0.000  0.000  0.000  0.000  0.000
    4  0.000  0.000  0.000  0.000  0.000  0.000  0.000  0.000  0.000  0.000
tot    0.000  0.246  0.000  0.750  0.000  0.000  0.000  0.000  0.000  0.995
 
band     2 # energy  -44.23140410 # occ.  1.00000000
 
ion      s     py     pz     px    dxy    dyz    dz2    dxz  x2-y2    tot
    1  0.000  0.000  0.000  0.000  0.000  0.000  0.000  0.000  0.000  0.000
    2  0.000  0.750  0.000  0.246  0.000  0.000  0.000  0.000  0.000  0.995
    3  0.000  0.000  0.000  0.000  0.000  0.000  0.000  0.000  0.000  0.000
    4  0.000  0.000  0.000  0.000  0.000  0.000  0.000  0.000  0.000  0.000
tot    0.000  0.750  0.000  0.246  0.000  0.000  0.000  0.000  0.000  0.995
 
band     3 # energy  -44.22820971 # occ.  1.00000000
 
ion      s     py     pz     px    dxy    dyz    dz2    dxz  x2-y2    tot
    1  0.000  0.000  0.000  0.000  0.000  0.000  0.000  0.000  0.000  0.000
    2  0.000  0.000  0.995  0.000  0.000  0.000  0.000  0.000  0.000  0.995
    3  0.000  0.000  0.000  0.000  0.000  0.000  0.000  0.000  0.000  0.000
    4  0.000  0.000  0.000  0.000  0.000  0.000  0.000  0.000  0.000  0.000
tot    0.000  0.000  0.995  0.000  0.000  0.000  0.000  0.000  0.000  0.995
 
band     4 # energy  -39.85048157 # occ.  1.00000000
 
ion      s     py     pz     px    dxy    dyz    dz2    dxz  x2-y2    tot
    1  0.000  0.000  0.995  0.000  0.000  0.000  0.000  0.000  0.000  0.995
    2  0.000  0.000  0.000  0.000  0.000  0.000  0.000  0.000  0.000  0.000
    3  0.000  0.000  0.000  0.000  0.000  0.000  0.000  0.000  0.000  0.000
    4  0.000  0.000  0.000  0.000  0.000  0.000  0.000  0.000  0.000  0.000
tot    0.000  0.000  0.995  0.000  0.000  0.000  0.000  0.000  0.000  0.995
 
band     5 # energy  -39.84451300 # occ.  1.00000000
 
ion      s     py     pz     px    dxy    dyz    dz2    dxz  x2-y2    tot
    1  0.000  0.246  0.000  0.750  0.000  0.000  0.000  0.000  0.000  0.995
    2  0.000  0.000  0.000  0.000  0.000  0.000  0.000  0.000  0.000  0.000
    3  0.000  0.000  0.000  0.000  0.000  0.000  0.000  0.000  0.000  0.000
    4  0.000  0.000  0.000  0.000  0.000  0.000  0.000  0.000  0.000  0.000
tot    0.000  0.246  0.000  0.750  0.000  0.000  0.000  0.000  0.000  0.995
 
band     6 # energy  -39.84382383 # occ.  1.00000000
 
ion      s     py     pz     px    dxy    dyz    dz2    dxz  x2-y2    tot
    1  0.000  0.750  0.000  0.246  0.000  0.000  0.000  0.000  0.000  0.996
    2  0.000  0.000  0.000  0.000  0.000  0.000  0.000  0.000  0.000  0.000
    3  0.000  0.000  0.000  0.000  0.000  0.000  0.000  0.000  0.000  0.000
    4  0.000  0.000  0.000  0.000  0.000  0.000  0.000  0.000  0.000  0.000
tot    0.000  0.750  0.000  0.246  0.000  0.000  0.000  0.000  0.000  0.996
 
band     7 # energy   -5.03285360 # occ.  1.00000000
 
ion      s     py     pz     px    dxy    dyz    dz2    dxz  x2-y2    tot
    1  0.000  0.000  0.003  0.000  0.001  0.001  0.000  0.002  0.000  0.007
    2  0.016  0.001  0.000  0.002  0.001  0.000  0.000  0.001  0.000  0.021
    3  0.309  0.000  0.001  0.001  0.000  0.000  0.000  0.000  0.000  0.310
    4  0.309  0.000  0.001  0.001  0.000  0.000  0.000  0.000  0.000  0.310
tot    0.635  0.001  0.004  0.004  0.001  0.001  0.000  0.003  0.000  0.649
 
band     8 # energy   -5.01234840 # occ.  1.00000000
 
ion      s     py     pz     px    dxy    dyz    dz2    dxz  x2-y2    tot
    1  0.012  0.001  0.000  0.002  0.000  0.000  0.000  0.001  0.000  0.016
    2  0.000  0.000  0.003  0.001  0.001  0.001  0.000  0.003  0.000  0.010
    3  0.311  0.000  0.001  0.000  0.000  0.000  0.000  0.000  0.000  0.313
    4  0.311  0.000  0.001  0.000  0.000  0.000  0.000  0.000  0.000  0.313
tot    0.636  0.001  0.005  0.003  0.001  0.001  0.000  0.003  0.000  0.651
 
band     9 # energy    1.62776183 # occ.  1.00000000
 
ion      s     py     pz     px    dxy    dyz    dz2    dxz  x2-y2    tot
    1  0.036  0.000  0.001  0.001  0.000  0.002  0.000  0.005  0.000  0.046
    2  0.014  0.001  0.002  0.004  0.124  0.008  0.000  0.023  0.041  0.217
    3  0.012  0.018  0.045  0.053  0.000  0.000  0.000  0.000  0.000  0.127
    4  0.012  0.018  0.045  0.053  0.000  0.000  0.000  0.000  0.000  0.127
tot    0.074  0.037  0.092  0.111  0.124  0.009  0.001  0.028  0.041  0.518
 
band    10 # energy    1.70997248 # occ.  1.00000000
 
ion      s     py     pz     px    dxy    dyz    dz2    dxz  x2-y2    tot
    1  0.011  0.001  0.001  0.003  0.017  0.002  0.000  0.005  0.006  0.046
    2  0.065  0.000  0.002  0.001  0.000  0.018  0.001  0.053  0.000  0.139
    3  0.019  0.021  0.042  0.063  0.000  0.000  0.000  0.000  0.000  0.145
    4  0.019  0.021  0.042  0.063  0.000  0.000  0.000  0.000  0.000  0.145
tot    0.114  0.043  0.086  0.130  0.017  0.019  0.001  0.058  0.006  0.475
 
band    11 # energy    2.71250616 # occ.  1.00000000
 
ion      s     py     pz     px    dxy    dyz    dz2    dxz  x2-y2    tot
    1  0.000  0.003  0.000  0.001  0.000  0.000  0.000  0.000  0.001  0.005
    2  0.000  0.000  0.000  0.000  0.038  0.381  0.000  0.127  0.114  0.660
    3  0.000  0.045  0.000  0.015  0.000  0.000  0.000  0.000  0.001  0.062
    4  0.000  0.045  0.000  0.015  0.000  0.000  0.000  0.000  0.001  0.062
tot    0.000  0.094  0.000  0.031  0.038  0.382  0.000  0.127  0.115  0.788
 
band    12 # energy    2.73524682 # occ.  1.00000000
 
ion      s     py     pz     px    dxy    dyz    dz2    dxz  x2-y2    tot
    1  0.000  0.000  0.010  0.000  0.000  0.000  0.000  0.000  0.000  0.011
    2  0.000  0.002  0.000  0.006  0.004  0.017  0.503  0.050  0.001  0.583
    3  0.001  0.004  0.040  0.013  0.000  0.000  0.001  0.000  0.000  0.060
    4  0.001  0.004  0.040  0.013  0.000  0.000  0.001  0.000  0.000  0.060
tot    0.001  0.011  0.091  0.032  0.006  0.017  0.504  0.050  0.002  0.714
 
band    13 # energy    3.25607999 # occ.  1.00000000
 
ion      s     py     pz     px    dxy    dyz    dz2    dxz  x2-y2    tot
    1  0.000  0.000  0.000  0.000  0.001  0.006  0.000  0.002  0.002  0.011
    2  0.000  0.002  0.000  0.001  0.150  0.135  0.000  0.045  0.450  0.783
    3  0.000  0.020  0.000  0.007  0.000  0.000  0.000  0.000  0.000  0.027
    4  0.000  0.020  0.000  0.007  0.000  0.000  0.000  0.000  0.000  0.027
tot    0.000  0.042  0.000  0.014  0.151  0.141  0.000  0.047  0.452  0.847
 
band    14 # energy    3.31639190 # occ.  1.00000000
 
ion      s     py     pz     px    dxy    dyz    dz2    dxz  x2-y2    tot
    1  0.001  0.000  0.000  0.001  0.003  0.000  0.001  0.001  0.001  0.008
    2  0.008  0.000  0.000  0.000  0.194  0.116  0.077  0.348  0.065  0.809
    3  0.002  0.000  0.012  0.001  0.001  0.000  0.001  0.000  0.000  0.018
    4  0.002  0.000  0.012  0.001  0.001  0.000  0.001  0.000  0.000  0.018
tot    0.014  0.001  0.024  0.004  0.198  0.117  0.079  0.350  0.066  0.852
 
band    15 # energy    3.66529413 # occ.  1.00000000
 
ion      s     py     pz     px    dxy    dyz    dz2    dxz  x2-y2    tot
    1  0.003  0.003  0.000  0.008  0.001  0.007  0.034  0.021  0.000  0.077
    2  0.009  0.000  0.024  0.001  0.099  0.003  0.024  0.008  0.033  0.199
    3  0.002  0.019  0.061  0.057  0.001  0.000  0.001  0.000  0.000  0.141
    4  0.002  0.019  0.061  0.057  0.001  0.000  0.001  0.000  0.000  0.141
tot    0.016  0.041  0.146  0.123  0.101  0.010  0.059  0.029  0.034  0.558
 
band    16 # energy    4.05688227 # occ.  1.00000000
 
ion      s     py     pz     px    dxy    dyz    dz2    dxz  x2-y2    tot
    1  0.011  0.001  0.001  0.002  0.005  0.000  0.017  0.001  0.002  0.040
    2  0.000  0.002  0.005  0.005  0.215  0.019  0.164  0.056  0.072  0.537
    3  0.011  0.003  0.063  0.008  0.000  0.000  0.000  0.001  0.000  0.086
    4  0.011  0.003  0.063  0.008  0.000  0.000  0.000  0.001  0.000  0.086
tot    0.034  0.007  0.131  0.022  0.221  0.019  0.181  0.058  0.074  0.748
 
band    17 # energy    4.30464615 # occ.  1.00000000
 
ion      s     py     pz     px    dxy    dyz    dz2    dxz  x2-y2    tot
    1  0.000  0.001  0.000  0.000  0.009  0.089  0.000  0.030  0.028  0.157
    2  0.000  0.015  0.000  0.005  0.026  0.021  0.000  0.007  0.077  0.152
    3  0.000  0.119  0.000  0.040  0.000  0.000  0.000  0.000  0.001  0.160
    4  0.000  0.119  0.000  0.040  0.000  0.000  0.000  0.000  0.001  0.160
tot    0.000  0.254  0.000  0.085  0.036  0.111  0.000  0.037  0.107  0.629
 
band    18 # energy    5.04118999 # occ.  1.00000000
 
ion      s     py     pz     px    dxy    dyz    dz2    dxz  x2-y2    tot
    1  0.020  0.000  0.010  0.000  0.001  0.002  0.005  0.005  0.000  0.042
    2  0.000  0.003  0.000  0.009  0.025  0.046  0.137  0.139  0.008  0.368
    3  0.010  0.012  0.074  0.037  0.000  0.000  0.001  0.001  0.000  0.135
    4  0.010  0.012  0.074  0.037  0.000  0.000  0.001  0.001  0.000  0.135
tot    0.039  0.027  0.159  0.082  0.026  0.049  0.143  0.146  0.009  0.680
 
band    19 # energy    5.53192122 # occ.  1.00000000
 
ion      s     py     pz     px    dxy    dyz    dz2    dxz  x2-y2    tot
    1  0.000  0.017  0.000  0.006  0.012  0.008  0.000  0.003  0.037  0.082
    2  0.000  0.002  0.000  0.001  0.014  0.145  0.000  0.048  0.042  0.252
    3  0.000  0.114  0.000  0.038  0.000  0.002  0.000  0.001  0.000  0.155
    4  0.000  0.114  0.000  0.038  0.000  0.002  0.000  0.001  0.000  0.155
tot    0.000  0.246  0.000  0.082  0.026  0.158  0.000  0.053  0.079  0.644
 
band    20 # energy    6.68604346 # occ.  0.00000000
 
ion      s     py     pz     px    dxy    dyz    dz2    dxz  x2-y2    tot
    1  0.012  0.000  0.000  0.001  0.257  0.035  0.122  0.104  0.086  0.616
    2  0.023  0.000  0.005  0.001  0.004  0.002  0.000  0.005  0.001  0.040
    3  0.007  0.000  0.004  0.000  0.004  0.001  0.002  0.002  0.001  0.021
    4  0.007  0.000  0.004  0.000  0.004  0.001  0.002  0.002  0.001  0.021
tot    0.050  0.000  0.013  0.001  0.269  0.037  0.126  0.112  0.090  0.699
 
band    21 # energy    7.23414203 # occ.  0.00000000
 
ion      s     py     pz     px    dxy    dyz    dz2    dxz  x2-y2    tot
    1  0.000  0.000  0.000  0.000  0.187  0.073  0.188  0.218  0.062  0.729
    2  0.045  0.000  0.001  0.000  0.001  0.000  0.001  0.000  0.000  0.049
    3  0.015  0.001  0.003  0.002  0.000  0.001  0.001  0.004  0.000  0.027
    4  0.015  0.001  0.003  0.002  0.000  0.001  0.001  0.004  0.000  0.027
tot    0.076  0.001  0.007  0.004  0.188  0.075  0.190  0.226  0.063  0.831
 
band    22 # energy    7.48917527 # occ.  0.00000000
 
ion      s     py     pz     px    dxy    dyz    dz2    dxz  x2-y2    tot
    1  0.000  0.003  0.000  0.001  0.174  0.078  0.000  0.026  0.523  0.805
    2  0.000  0.000  0.000  0.000  0.001  0.011  0.000  0.004  0.002  0.018
    3  0.000  0.016  0.000  0.005  0.000  0.000  0.000  0.000  0.001  0.023
    4  0.000  0.016  0.000  0.005  0.000  0.000  0.000  0.000  0.001  0.023
tot    0.000  0.036  0.000  0.012  0.176  0.090  0.000  0.030  0.527  0.870
 
band    23 # energy    7.72934499 # occ.  0.00000000
 
ion      s     py     pz     px    dxy    dyz    dz2    dxz  x2-y2    tot
    1  0.000  0.001  0.000  0.004  0.014  0.083  0.438  0.249  0.005  0.794
    2  0.013  0.000  0.000  0.000  0.000  0.000  0.000  0.000  0.000  0.014
    3  0.005  0.003  0.012  0.010  0.000  0.000  0.000  0.001  0.000  0.032
    4  0.005  0.003  0.012  0.010  0.000  0.000  0.000  0.001  0.000  0.032
tot    0.023  0.008  0.025  0.025  0.014  0.084  0.438  0.251  0.005  0.873
 
band    24 # energy    7.78884894 # occ.  0.00000000
 
ion      s     py     pz     px    dxy    dyz    dz2    dxz  x2-y2    tot
    1  0.000  0.000  0.000  0.000  0.019  0.470  0.000  0.157  0.056  0.701
    2  0.000  0.017  0.000  0.006  0.002  0.001  0.000  0.000  0.005  0.031
    3  0.000  0.030  0.000  0.010  0.000  0.005  0.000  0.002  0.001  0.047
    4  0.000  0.030  0.000  0.010  0.000  0.005  0.000  0.002  0.001  0.047
tot    0.000  0.077  0.000  0.026  0.021  0.480  0.000  0.160  0.063  0.827
 

 k-point    10 :   -0.26315789 0.00000000 0.50000000     weight = 0.02500000

band     1 # energy  -44.23179544 # occ.  1.00000000
 
ion      s     py     pz     px    dxy    dyz    dz2    dxz  x2-y2    tot
    1  0.000  0.000  0.000  0.000  0.000  0.000  0.000  0.000  0.000  0.000
    2  0.000  0.245  0.000  0.750  0.000  0.000  0.000  0.000  0.000  0.995
    3  0.000  0.000  0.000  0.000  0.000  0.000  0.000  0.000  0.000  0.000
    4  0.000  0.000  0.000  0.000  0.000  0.000  0.000  0.000  0.000  0.000
tot    0.000  0.245  0.000  0.750  0.000  0.000  0.000  0.000  0.000  0.995
 
band     2 # energy  -44.23139753 # occ.  1.00000000
 
ion      s     py     pz     px    dxy    dyz    dz2    dxz  x2-y2    tot
    1  0.000  0.000  0.000  0.000  0.000  0.000  0.000  0.000  0.000  0.000
    2  0.000  0.750  0.000  0.245  0.000  0.000  0.000  0.000  0.000  0.995
    3  0.000  0.000  0.000  0.000  0.000  0.000  0.000  0.000  0.000  0.000
    4  0.000  0.000  0.000  0.000  0.000  0.000  0.000  0.000  0.000  0.000
tot    0.000  0.750  0.000  0.245  0.000  0.000  0.000  0.000  0.000  0.995
 
band     3 # energy  -44.22822840 # occ.  1.00000000
 
ion      s     py     pz     px    dxy    dyz    dz2    dxz  x2-y2    tot
    1  0.000  0.000  0.000  0.000  0.000  0.000  0.000  0.000  0.000  0.000
    2  0.000  0.000  0.995  0.000  0.000  0.000  0.000  0.000  0.000  0.995
    3  0.000  0.000  0.000  0.000  0.000  0.000  0.000  0.000  0.000  0.000
    4  0.000  0.000  0.000  0.000  0.000  0.000  0.000  0.000  0.000  0.000
tot    0.000  0.000  0.995  0.000  0.000  0.000  0.000  0.000  0.000  0.995
 
band     4 # energy  -39.85050963 # occ.  1.00000000
 
ion      s     py     pz     px    dxy    dyz    dz2    dxz  x2-y2    tot
    1  0.000  0.000  0.995  0.000  0.000  0.000  0.000  0.000  0.000  0.995
    2  0.000  0.000  0.000  0.000  0.000  0.000  0.000  0.000  0.000  0.000
    3  0.000  0.000  0.000  0.000  0.000  0.000  0.000  0.000  0.000  0.000
    4  0.000  0.000  0.000  0.000  0.000  0.000  0.000  0.000  0.000  0.000
tot    0.000  0.000  0.995  0.000  0.000  0.000  0.000  0.000  0.000  0.995
 
band     5 # energy  -39.84440779 # occ.  1.00000000
 
ion      s     py     pz     px    dxy    dyz    dz2    dxz  x2-y2    tot
    1  0.000  0.245  0.000  0.750  0.000  0.000  0.000  0.000  0.000  0.995
    2  0.000  0.000  0.000  0.000  0.000  0.000  0.000  0.000  0.000  0.000
    3  0.000  0.000  0.000  0.000  0.000  0.000  0.000  0.000  0.000  0.000
    4  0.000  0.000  0.000  0.000  0.000  0.000  0.000  0.000  0.000  0.000
tot    0.000  0.245  0.000  0.750  0.000  0.000  0.000  0.000  0.000  0.995
 
band     6 # energy  -39.84381253 # occ.  1.00000000
 
ion      s     py     pz     px    dxy    dyz    dz2    dxz  x2-y2    tot
    1  0.000  0.750  0.000  0.245  0.000  0.000  0.000  0.000  0.000  0.995
    2  0.000  0.000  0.000  0.000  0.000  0.000  0.000  0.000  0.000  0.000
    3  0.000  0.000  0.000  0.000  0.000  0.000  0.000  0.000  0.000  0.000
    4  0.000  0.000  0.000  0.000  0.000  0.000  0.000  0.000  0.000  0.000
tot    0.000  0.750  0.000  0.245  0.000  0.000  0.000  0.000  0.000  0.996
 
band     7 # energy   -5.09933085 # occ.  1.00000000
 
ion      s     py     pz     px    dxy    dyz    dz2    dxz  x2-y2    tot
    1  0.000  0.000  0.003  0.000  0.001  0.001  0.000  0.002  0.000  0.006
    2  0.019  0.001  0.000  0.002  0.000  0.000  0.000  0.000  0.000  0.023
    3  0.306  0.000  0.001  0.001  0.000  0.000  0.000  0.000  0.000  0.307
    4  0.306  0.000  0.001  0.001  0.000  0.000  0.000  0.000  0.000  0.307
tot    0.630  0.001  0.005  0.003  0.001  0.001  0.000  0.002  0.000  0.643
 
band     8 # energy   -5.07545744 # occ.  1.00000000
 
ion      s     py     pz     px    dxy    dyz    dz2    dxz  x2-y2    tot
    1  0.014  0.001  0.000  0.002  0.000  0.000  0.000  0.000  0.000  0.017
    2  0.000  0.000  0.004  0.000  0.001  0.001  0.000  0.003  0.000  0.009
    3  0.308  0.000  0.001  0.000  0.000  0.000  0.000  0.000  0.000  0.310
    4  0.308  0.000  0.001  0.000  0.000  0.000  0.000  0.000  0.000  0.310
tot    0.631  0.001  0.005  0.003  0.001  0.001  0.000  0.003  0.000  0.646
 
band     9 # energy    1.73212979 # occ.  1.00000000
 
ion      s     py     pz     px    dxy    dyz    dz2    dxz  x2-y2    tot
    1  0.041  0.000  0.000  0.000  0.000  0.001  0.000  0.003  0.000  0.046
    2  0.003  0.001  0.001  0.003  0.137  0.016  0.000  0.048  0.046  0.256
    3  0.011  0.016  0.048  0.048  0.000  0.000  0.000  0.000  0.000  0.123
    4  0.011  0.016  0.048  0.048  0.000  0.000  0.000  0.000  0.000  0.123
tot    0.067  0.033  0.098  0.099  0.137  0.017  0.001  0.051  0.046  0.549
 
band    10 # energy    1.85441180 # occ.  1.00000000
 
ion      s     py     pz     px    dxy    dyz    dz2    dxz  x2-y2    tot
    1  0.003  0.001  0.001  0.003  0.018  0.003  0.000  0.009  0.006  0.044
    2  0.077  0.000  0.001  0.000  0.004  0.012  0.005  0.037  0.001  0.138
    3  0.023  0.018  0.053  0.055  0.000  0.000  0.000  0.000  0.000  0.150
    4  0.023  0.018  0.053  0.055  0.000  0.000  0.000  0.000  0.000  0.150
tot    0.126  0.038  0.107  0.113  0.023  0.015  0.005  0.046  0.008  0.482
 
band    11 # energy    2.72315529 # occ.  1.00000000
 
ion      s     py     pz     px    dxy    dyz    dz2    dxz  x2-y2    tot
    1  0.000  0.002  0.000  0.001  0.000  0.000  0.000  0.000  0.001  0.005
    2  0.000  0.000  0.000  0.000  0.047  0.358  0.000  0.119  0.142  0.667
    3  0.000  0.044  0.000  0.015  0.000  0.000  0.000  0.000  0.001  0.060
    4  0.000  0.044  0.000  0.015  0.000  0.000  0.000  0.000  0.001  0.060
tot    0.000  0.091  0.000  0.030  0.048  0.359  0.000  0.120  0.144  0.793
 
band    12 # energy    2.73480914 # occ.  1.00000000
 
ion      s     py     pz     px    dxy    dyz    dz2    dxz  x2-y2    tot
    1  0.000  0.000  0.010  0.000  0.000  0.000  0.000  0.000  0.000  0.010
    2  0.000  0.002  0.000  0.005  0.000  0.018  0.513  0.055  0.000  0.593
    3  0.000  0.006  0.032  0.018  0.000  0.000  0.001  0.000  0.000  0.057
    4  0.000  0.006  0.032  0.018  0.000  0.000  0.001  0.000  0.000  0.057
tot    0.001  0.014  0.074  0.041  0.001  0.018  0.515  0.055  0.000  0.718
 
band    13 # energy    3.24111896 # occ.  1.00000000
 
ion      s     py     pz     px    dxy    dyz    dz2    dxz  x2-y2    tot
    1  0.000  0.000  0.000  0.000  0.001  0.005  0.000  0.002  0.002  0.010
    2  0.000  0.002  0.000  0.001  0.140  0.168  0.000  0.056  0.421  0.789
    3  0.000  0.018  0.000  0.006  0.000  0.000  0.000  0.000  0.000  0.025
    4  0.000  0.018  0.000  0.006  0.000  0.000  0.000  0.000  0.000  0.025
tot    0.000  0.039  0.000  0.013  0.141  0.174  0.000  0.058  0.424  0.849
 
band    14 # energy    3.32203642 # occ.  1.00000000
 
ion      s     py     pz     px    dxy    dyz    dz2    dxz  x2-y2    tot
    1  0.001  0.000  0.000  0.001  0.003  0.000  0.001  0.001  0.001  0.009
    2  0.009  0.000  0.000  0.000  0.217  0.108  0.080  0.323  0.072  0.810
    3  0.003  0.001  0.011  0.002  0.001  0.000  0.001  0.000  0.000  0.017
    4  0.003  0.001  0.011  0.002  0.001  0.000  0.001  0.000  0.000  0.017
tot    0.015  0.001  0.022  0.004  0.221  0.108  0.082  0.325  0.074  0.853
 
band    15 # energy    3.76497235 # occ.  1.00000000
 
ion      s     py     pz     px    dxy    dyz    dz2    dxz  x2-y2    tot
    1  0.000  0.003  0.000  0.010  0.001  0.006  0.052  0.018  0.000  0.092
    2  0.007  0.000  0.029  0.000  0.014  0.000  0.000  0.000  0.005  0.055
    3  0.000  0.019  0.089  0.057  0.001  0.000  0.001  0.000  0.000  0.169
    4  0.000  0.019  0.089  0.057  0.001  0.000  0.001  0.000  0.000  0.169
tot    0.007  0.042  0.208  0.126  0.016  0.006  0.054  0.019  0.005  0.484
 
band    16 # energy    4.07655895 # occ.  1.00000000
 
ion      s     py     pz     px    dxy    dyz    dz2    dxz  x2-y2    tot
    1  0.019  0.000  0.001  0.000  0.003  0.000  0.003  0.001  0.001  0.029
    2  0.000  0.002  0.000  0.005  0.273  0.030  0.149  0.090  0.091  0.641
    3  0.016  0.005  0.030  0.014  0.000  0.000  0.000  0.001  0.000  0.066
    4  0.016  0.005  0.030  0.014  0.000  0.000  0.000  0.001  0.000  0.066
tot    0.051  0.011  0.061  0.034  0.277  0.031  0.152  0.092  0.092  0.802
 
band    17 # energy    4.35926023 # occ.  1.00000000
 
ion      s     py     pz     px    dxy    dyz    dz2    dxz  x2-y2    tot
    1  0.000  0.001  0.000  0.000  0.012  0.089  0.000  0.030  0.035  0.167
    2  0.000  0.014  0.000  0.005  0.023  0.024  0.000  0.008  0.068  0.141
    3  0.000  0.120  0.000  0.040  0.000  0.000  0.000  0.000  0.001  0.161
    4  0.000  0.120  0.000  0.040  0.000  0.000  0.000  0.000  0.001  0.161
tot    0.000  0.255  0.000  0.085  0.035  0.114  0.000  0.038  0.105  0.631
 
band    18 # energy    5.00118645 # occ.  1.00000000
 
ion      s     py     pz     px    dxy    dyz    dz2    dxz  x2-y2    tot
    1  0.017  0.000  0.011  0.000  0.004  0.001  0.002  0.003  0.001  0.039
    2  0.001  0.003  0.000  0.009  0.017  0.041  0.157  0.124  0.006  0.359
    3  0.008  0.015  0.069  0.044  0.000  0.000  0.000  0.001  0.000  0.139
    4  0.008  0.015  0.069  0.044  0.000  0.000  0.000  0.001  0.000  0.139
tot    0.034  0.033  0.149  0.098  0.021  0.043  0.160  0.129  0.007  0.674
 
band    19 # energy    5.57646557 # occ.  1.00000000
 
ion      s     py     pz     px    dxy    dyz    dz2    dxz  x2-y2    tot
    1  0.000  0.015  0.000  0.005  0.013  0.013  0.000  0.004  0.040  0.091
    2  0.000  0.002  0.000  0.001  0.016  0.130  0.000  0.043  0.049  0.243
    3  0.000  0.114  0.000  0.038  0.000  0.002  0.000  0.001  0.001  0.156
    4  0.000  0.114  0.000  0.038  0.000  0.002  0.000  0.001  0.001  0.156
tot    0.000  0.246  0.000  0.082  0.030  0.147  0.000  0.049  0.091  0.645
 
band    20 # energy    6.72063443 # occ.  0.00000000
 
ion      s     py     pz     px    dxy    dyz    dz2    dxz  x2-y2    tot
    1  0.013  0.000  0.000  0.000  0.266  0.033  0.124  0.100  0.089  0.626
    2  0.022  0.000  0.005  0.001  0.003  0.002  0.000  0.005  0.001  0.039
    3  0.008  0.000  0.004  0.000  0.004  0.001  0.002  0.002  0.001  0.021
    4  0.008  0.000  0.004  0.000  0.004  0.001  0.002  0.002  0.001  0.021
tot    0.050  0.001  0.013  0.002  0.277  0.036  0.128  0.108  0.092  0.707
 
band    21 # energy    7.22195614 # occ.  0.00000000
 
ion      s     py     pz     px    dxy    dyz    dz2    dxz  x2-y2    tot
    1  0.000  0.000  0.000  0.000  0.183  0.082  0.163  0.246  0.061  0.735
    2  0.044  0.000  0.001  0.001  0.001  0.000  0.000  0.000  0.000  0.047
    3  0.016  0.000  0.003  0.001  0.000  0.001  0.001  0.004  0.000  0.026
    4  0.016  0.000  0.003  0.001  0.000  0.001  0.001  0.004  0.000  0.026
tot    0.076  0.001  0.006  0.003  0.184  0.085  0.165  0.254  0.061  0.835
 
band    22 # energy    7.48775859 # occ.  0.00000000
 
ion      s     py     pz     px    dxy    dyz    dz2    dxz  x2-y2    tot
    1  0.000  0.003  0.000  0.001  0.154  0.128  0.000  0.043  0.463  0.791
    2  0.000  0.000  0.000  0.000  0.001  0.012  0.000  0.004  0.003  0.020
    3  0.000  0.020  0.000  0.007  0.000  0.000  0.000  0.000  0.001  0.027
    4  0.000  0.020  0.000  0.007  0.000  0.000  0.000  0.000  0.001  0.027
tot    0.000  0.042  0.000  0.014  0.156  0.140  0.000  0.047  0.467  0.866
 
band    23 # energy    7.70269057 # occ.  0.00000000
 
ion      s     py     pz     px    dxy    dyz    dz2    dxz  x2-y2    tot
    1  0.000  0.001  0.000  0.003  0.016  0.078  0.456  0.233  0.005  0.793
    2  0.009  0.000  0.000  0.000  0.000  0.000  0.000  0.000  0.000  0.010
    3  0.003  0.004  0.013  0.013  0.000  0.000  0.000  0.001  0.000  0.035
    4  0.003  0.004  0.013  0.013  0.000  0.000  0.000  0.001  0.000  0.035
tot    0.016  0.010  0.027  0.029  0.017  0.078  0.457  0.234  0.006  0.873
 
band    24 # energy    7.81608211 # occ.  0.00000000
 
ion      s     py     pz     px    dxy    dyz    dz2    dxz  x2-y2    tot
    1  0.000  0.001  0.000  0.000  0.033  0.417  0.000  0.139  0.101  0.691
    2  0.000  0.017  0.000  0.006  0.002  0.002  0.000  0.001  0.005  0.032
    3  0.000  0.033  0.000  0.011  0.000  0.005  0.000  0.002  0.001  0.051
    4  0.000  0.033  0.000  0.011  0.000  0.005  0.000  0.002  0.001  0.051
tot    0.000  0.083  0.000  0.028  0.036  0.428  0.000  0.143  0.108  0.825
 

 k-point    11 :   -0.23684211 0.00000000 0.50000000     weight = 0.02500000

band     1 # energy  -44.23171328 # occ.  1.00000000
 
ion      s     py     pz     px    dxy    dyz    dz2    dxz  x2-y2    tot
    1  0.000  0.000  0.000  0.000  0.000  0.000  0.000  0.000  0.000  0.000
    2  0.000  0.244  0.000  0.751  0.000  0.000  0.000  0.000  0.000  0.995
    3  0.000  0.000  0.000  0.000  0.000  0.000  0.000  0.000  0.000  0.000
    4  0.000  0.000  0.000  0.000  0.000  0.000  0.000  0.000  0.000  0.000
tot    0.000  0.244  0.000  0.751  0.000  0.000  0.000  0.000  0.000  0.995
 
band     2 # energy  -44.23138062 # occ.  1.00000000
 
ion      s     py     pz     px    dxy    dyz    dz2    dxz  x2-y2    tot
    1  0.000  0.000  0.000  0.000  0.000  0.000  0.000  0.000  0.000  0.000
    2  0.000  0.751  0.000  0.244  0.000  0.000  0.000  0.000  0.000  0.995
    3  0.000  0.000  0.000  0.000  0.000  0.000  0.000  0.000  0.000  0.000
    4  0.000  0.000  0.000  0.000  0.000  0.000  0.000  0.000  0.000  0.000
tot    0.000  0.751  0.000  0.244  0.000  0.000  0.000  0.000  0.000  0.995
 
band     3 # energy  -44.22823605 # occ.  1.00000000
 
ion      s     py     pz     px    dxy    dyz    dz2    dxz  x2-y2    tot
    1  0.000  0.000  0.000  0.000  0.000  0.000  0.000  0.000  0.000  0.000
    2  0.000  0.000  0.995  0.000  0.000  0.000  0.000  0.000  0.000  0.995
    3  0.000  0.000  0.000  0.000  0.000  0.000  0.000  0.000  0.000  0.000
    4  0.000  0.000  0.000  0.000  0.000  0.000  0.000  0.000  0.000  0.000
tot    0.000  0.000  0.995  0.000  0.000  0.000  0.000  0.000  0.000  0.995
 
band     4 # energy  -39.85052472 # occ.  1.00000000
 
ion      s     py     pz     px    dxy    dyz    dz2    dxz  x2-y2    tot
    1  0.000  0.000  0.995  0.000  0.000  0.000  0.000  0.000  0.000  0.995
    2  0.000  0.000  0.000  0.000  0.000  0.000  0.000  0.000  0.000  0.000
    3  0.000  0.000  0.000  0.000  0.000  0.000  0.000  0.000  0.000  0.000
    4  0.000  0.000  0.000  0.000  0.000  0.000  0.000  0.000  0.000  0.000
tot    0.000  0.000  0.995  0.000  0.000  0.000  0.000  0.000  0.000  0.995
 
band     5 # energy  -39.84428553 # occ.  1.00000000
 
ion      s     py     pz     px    dxy    dyz    dz2    dxz  x2-y2    tot
    1  0.000  0.244  0.000  0.751  0.000  0.000  0.000  0.000  0.000  0.995
    2  0.000  0.000  0.000  0.000  0.000  0.000  0.000  0.000  0.000  0.000
    3  0.000  0.000  0.000  0.000  0.000  0.000  0.000  0.000  0.000  0.000
    4  0.000  0.000  0.000  0.000  0.000  0.000  0.000  0.000  0.000  0.000
tot    0.000  0.244  0.000  0.751  0.000  0.000  0.000  0.000  0.000  0.995
 
band     6 # energy  -39.84378702 # occ.  1.00000000
 
ion      s     py     pz     px    dxy    dyz    dz2    dxz  x2-y2    tot
    1  0.000  0.751  0.000  0.244  0.000  0.000  0.000  0.000  0.000  0.996
    2  0.000  0.000  0.000  0.000  0.000  0.000  0.000  0.000  0.000  0.000
    3  0.000  0.000  0.000  0.000  0.000  0.000  0.000  0.000  0.000  0.000
    4  0.000  0.000  0.000  0.000  0.000  0.000  0.000  0.000  0.000  0.000
tot    0.000  0.751  0.000  0.244  0.000  0.000  0.000  0.000  0.000  0.996
 
band     7 # energy   -5.16459601 # occ.  1.00000000
 
ion      s     py     pz     px    dxy    dyz    dz2    dxz  x2-y2    tot
    1  0.000  0.000  0.003  0.000  0.001  0.000  0.000  0.001  0.000  0.006
    2  0.021  0.001  0.000  0.002  0.000  0.000  0.000  0.000  0.000  0.024
    3  0.302  0.000  0.001  0.000  0.000  0.000  0.000  0.000  0.000  0.304
    4  0.302  0.000  0.001  0.000  0.000  0.000  0.000  0.000  0.000  0.304
tot    0.625  0.001  0.005  0.003  0.001  0.001  0.000  0.002  0.000  0.638
 
band     8 # energy   -5.13710739 # occ.  1.00000000
 
ion      s     py     pz     px    dxy    dyz    dz2    dxz  x2-y2    tot
    1  0.016  0.001  0.000  0.002  0.000  0.000  0.000  0.000  0.000  0.018
    2  0.000  0.000  0.004  0.000  0.001  0.001  0.000  0.002  0.000  0.009
    3  0.305  0.000  0.001  0.000  0.000  0.000  0.000  0.000  0.000  0.307
    4  0.305  0.000  0.001  0.000  0.000  0.000  0.000  0.000  0.000  0.307
tot    0.627  0.001  0.006  0.003  0.001  0.001  0.000  0.003  0.000  0.641
 
band     9 # energy    1.83122322 # occ.  1.00000000
 
ion      s     py     pz     px    dxy    dyz    dz2    dxz  x2-y2    tot
    1  0.041  0.000  0.000  0.000  0.000  0.001  0.001  0.002  0.000  0.045
    2  0.001  0.001  0.001  0.002  0.147  0.022  0.000  0.066  0.049  0.288
    3  0.012  0.014  0.051  0.043  0.000  0.000  0.000  0.000  0.000  0.120
    4  0.012  0.014  0.051  0.043  0.000  0.000  0.000  0.000  0.000  0.120
tot    0.065  0.030  0.103  0.089  0.147  0.023  0.001  0.068  0.049  0.573
 
band    10 # energy    1.98732401 # occ.  1.00000000
 
ion      s     py     pz     px    dxy    dyz    dz2    dxz  x2-y2    tot
    1  0.001  0.001  0.000  0.002  0.019  0.004  0.000  0.011  0.006  0.044
    2  0.078  0.000  0.000  0.000  0.008  0.009  0.024  0.026  0.003  0.148
    3  0.026  0.015  0.067  0.044  0.000  0.000  0.000  0.000  0.000  0.152
    4  0.026  0.015  0.067  0.044  0.000  0.000  0.000  0.000  0.000  0.152
tot    0.131  0.030  0.135  0.090  0.027  0.012  0.024  0.037  0.009  0.495
 
band    11 # energy    2.73063621 # occ.  1.00000000
 
ion      s     py     pz     px    dxy    dyz    dz2    dxz  x2-y2    tot
    1  0.000  0.002  0.000  0.001  0.000  0.000  0.000  0.000  0.001  0.004
    2  0.000  0.000  0.000  0.000  0.058  0.331  0.000  0.110  0.175  0.674
    3  0.000  0.043  0.000  0.014  0.000  0.001  0.000  0.000  0.000  0.059
    4  0.000  0.043  0.000  0.014  0.000  0.001  0.000  0.000  0.000  0.059
tot    0.000  0.089  0.000  0.030  0.059  0.332  0.000  0.111  0.177  0.796
 
band    12 # energy    2.75241051 # occ.  1.00000000
 
ion      s     py     pz     px    dxy    dyz    dz2    dxz  x2-y2    tot
    1  0.000  0.000  0.010  0.000  0.001  0.000  0.000  0.000  0.000  0.012
    2  0.001  0.001  0.000  0.004  0.003  0.022  0.500  0.067  0.001  0.599
    3  0.000  0.008  0.020  0.025  0.000  0.000  0.001  0.000  0.000  0.056
    4  0.000  0.008  0.020  0.025  0.000  0.000  0.001  0.000  0.000  0.056
tot    0.001  0.018  0.051  0.055  0.004  0.022  0.502  0.067  0.001  0.722
 
band    13 # energy    3.23346457 # occ.  1.00000000
 
ion      s     py     pz     px    dxy    dyz    dz2    dxz  x2-y2    tot
    1  0.000  0.000  0.000  0.000  0.001  0.004  0.000  0.001  0.002  0.009
    2  0.000  0.002  0.000  0.001  0.130  0.207  0.000  0.069  0.390  0.798
    3  0.000  0.017  0.000  0.006  0.000  0.000  0.000  0.000  0.000  0.023
    4  0.000  0.017  0.000  0.006  0.000  0.000  0.000  0.000  0.000  0.023
tot    0.000  0.035  0.000  0.012  0.131  0.211  0.000  0.070  0.393  0.852
 
band    14 # energy    3.32815858 # occ.  1.00000000
 
ion      s     py     pz     px    dxy    dyz    dz2    dxz  x2-y2    tot
    1  0.002  0.000  0.000  0.001  0.003  0.001  0.001  0.002  0.001  0.010
    2  0.009  0.000  0.000  0.000  0.233  0.099  0.089  0.296  0.078  0.804
    3  0.003  0.001  0.011  0.002  0.001  0.000  0.001  0.000  0.000  0.019
    4  0.003  0.001  0.011  0.002  0.001  0.000  0.001  0.000  0.000  0.019
tot    0.017  0.002  0.023  0.005  0.237  0.099  0.091  0.298  0.079  0.851
 
band    15 # energy    3.76764166 # occ.  1.00000000
 
ion      s     py     pz     px    dxy    dyz    dz2    dxz  x2-y2    tot
    1  0.004  0.003  0.000  0.009  0.001  0.003  0.055  0.010  0.000  0.087
    2  0.004  0.000  0.026  0.000  0.009  0.011  0.016  0.032  0.003  0.102
    3  0.003  0.013  0.103  0.038  0.001  0.000  0.001  0.000  0.000  0.160
    4  0.003  0.013  0.103  0.038  0.001  0.000  0.001  0.000  0.000  0.160
tot    0.015  0.029  0.233  0.086  0.012  0.014  0.074  0.043  0.004  0.510
 
band    16 # energy    4.19784642 # occ.  1.00000000
 
ion      s     py     pz     px    dxy    dyz    dz2    dxz  x2-y2    tot
    1  0.019  0.000  0.002  0.001  0.001  0.003  0.002  0.009  0.000  0.037
    2  0.001  0.002  0.003  0.007  0.250  0.027  0.110  0.080  0.083  0.563
    3  0.015  0.014  0.011  0.041  0.001  0.000  0.000  0.001  0.000  0.082
    4  0.015  0.014  0.011  0.041  0.001  0.000  0.000  0.001  0.000  0.082
tot    0.051  0.030  0.027  0.089  0.251  0.030  0.112  0.091  0.084  0.765
 
band    17 # energy    4.40539297 # occ.  1.00000000
 
ion      s     py     pz     px    dxy    dyz    dz2    dxz  x2-y2    tot
    1  0.000  0.001  0.000  0.000  0.015  0.088  0.000  0.029  0.044  0.177
    2  0.000  0.013  0.000  0.004  0.019  0.026  0.000  0.009  0.057  0.128
    3  0.000  0.121  0.000  0.040  0.000  0.000  0.000  0.000  0.001  0.163
    4  0.000  0.121  0.000  0.040  0.000  0.000  0.000  0.000  0.001  0.163
tot    0.000  0.257  0.000  0.086  0.034  0.115  0.000  0.038  0.102  0.632
 
band    18 # energy    4.97714242 # occ.  1.00000000
 
ion      s     py     pz     px    dxy    dyz    dz2    dxz  x2-y2    tot
    1  0.015  0.000  0.011  0.001  0.009  0.000  0.000  0.001  0.003  0.040
    2  0.003  0.003  0.000  0.009  0.014  0.037  0.166  0.110  0.005  0.346
    3  0.007  0.017  0.063  0.052  0.000  0.000  0.000  0.001  0.000  0.141
    4  0.007  0.017  0.063  0.052  0.000  0.000  0.000  0.001  0.000  0.141
tot    0.032  0.038  0.136  0.114  0.023  0.038  0.167  0.113  0.008  0.668
 
band    19 # energy    5.63430175 # occ.  1.00000000
 
ion      s     py     pz     px    dxy    dyz    dz2    dxz  x2-y2    tot
    1  0.000  0.014  0.000  0.005  0.014  0.018  0.000  0.006  0.042  0.099
    2  0.000  0.003  0.000  0.001  0.019  0.115  0.000  0.038  0.057  0.234
    3  0.000  0.115  0.000  0.038  0.000  0.002  0.000  0.001  0.001  0.157
    4  0.000  0.115  0.000  0.038  0.000  0.002  0.000  0.001  0.001  0.157
tot    0.000  0.247  0.000  0.082  0.034  0.137  0.000  0.046  0.101  0.646
 
band    20 # energy    6.76175501 # occ.  0.00000000
 
ion      s     py     pz     px    dxy    dyz    dz2    dxz  x2-y2    tot
    1  0.013  0.000  0.000  0.000  0.264  0.036  0.133  0.107  0.088  0.641
    2  0.019  0.001  0.005  0.002  0.003  0.002  0.000  0.005  0.001  0.036
    3  0.007  0.000  0.004  0.000  0.004  0.001  0.002  0.002  0.001  0.020
    4  0.007  0.000  0.004  0.000  0.004  0.001  0.002  0.002  0.001  0.020
tot    0.047  0.001  0.013  0.002  0.274  0.038  0.136  0.115  0.091  0.718
 
band    21 # energy    7.22872101 # occ.  0.00000000
 
ion      s     py     pz     px    dxy    dyz    dz2    dxz  x2-y2    tot
    1  0.000  0.000  0.000  0.000  0.190  0.085  0.139  0.256  0.063  0.733
    2  0.042  0.000  0.001  0.001  0.001  0.000  0.000  0.001  0.000  0.047
    3  0.017  0.001  0.003  0.002  0.000  0.001  0.001  0.004  0.000  0.028
    4  0.017  0.001  0.003  0.002  0.000  0.001  0.001  0.004  0.000  0.028
tot    0.076  0.002  0.006  0.005  0.191  0.088  0.140  0.264  0.064  0.835
 
band    22 # energy    7.47400839 # occ.  0.00000000
 
ion      s     py     pz     px    dxy    dyz    dz2    dxz  x2-y2    tot
    1  0.000  0.003  0.000  0.001  0.133  0.179  0.000  0.060  0.400  0.776
    2  0.000  0.000  0.000  0.000  0.002  0.012  0.000  0.004  0.005  0.023
    3  0.000  0.022  0.000  0.007  0.000  0.000  0.000  0.000  0.001  0.031
    4  0.000  0.022  0.000  0.007  0.000  0.000  0.000  0.000  0.001  0.031
tot    0.000  0.048  0.000  0.016  0.136  0.191  0.000  0.064  0.407  0.862
 
band    23 # energy    7.67044321 # occ.  0.00000000
 
ion      s     py     pz     px    dxy    dyz    dz2    dxz  x2-y2    tot
    1  0.000  0.001  0.000  0.003  0.017  0.073  0.465  0.220  0.006  0.785
    2  0.006  0.000  0.000  0.000  0.001  0.000  0.000  0.000  0.000  0.008
    3  0.003  0.005  0.014  0.015  0.000  0.000  0.000  0.001  0.000  0.038
    4  0.003  0.005  0.014  0.015  0.000  0.000  0.000  0.001  0.000  0.038
tot    0.012  0.011  0.028  0.033  0.019  0.074  0.466  0.221  0.006  0.869
 
band    24 # energy    7.85252190 # occ.  0.00000000
 
ion      s     py     pz     px    dxy    dyz    dz2    dxz  x2-y2    tot
    1  0.000  0.001  0.000  0.000  0.049  0.363  0.000  0.121  0.147  0.682
    2  0.000  0.016  0.000  0.005  0.002  0.003  0.000  0.001  0.005  0.032
    3  0.000  0.036  0.000  0.012  0.000  0.004  0.000  0.001  0.001  0.055
    4  0.000  0.036  0.000  0.012  0.000  0.004  0.000  0.001  0.001  0.055
tot    0.000  0.090  0.000  0.030  0.051  0.374  0.000  0.125  0.154  0.824
 

 k-point    12 :   -0.21052632 0.00000000 0.50000000     weight = 0.02500000

band     1 # energy  -44.23163602 # occ.  1.00000000
 
ion      s     py     pz     px    dxy    dyz    dz2    dxz  x2-y2    tot
    1  0.000  0.000  0.000  0.000  0.000  0.000  0.000  0.000  0.000  0.000
    2  0.000  0.244  0.000  0.752  0.000  0.000  0.000  0.000  0.000  0.995
    3  0.000  0.000  0.000  0.000  0.000  0.000  0.000  0.000  0.000  0.000
    4  0.000  0.000  0.000  0.000  0.000  0.000  0.000  0.000  0.000  0.000
tot    0.000  0.244  0.000  0.752  0.000  0.000  0.000  0.000  0.000  0.995
 
band     2 # energy  -44.23135205 # occ.  1.00000000
 
ion      s     py     pz     px    dxy    dyz    dz2    dxz  x2-y2    tot
    1  0.000  0.000  0.000  0.000  0.000  0.000  0.000  0.000  0.000  0.000
    2  0.000  0.752  0.000  0.244  0.000  0.000  0.000  0.000  0.000  0.995
    3  0.000  0.000  0.000  0.000  0.000  0.000  0.000  0.000  0.000  0.000
    4  0.000  0.000  0.000  0.000  0.000  0.000  0.000  0.000  0.000  0.000
tot    0.000  0.752  0.000  0.244  0.000  0.000  0.000  0.000  0.000  0.995
 
band     3 # energy  -44.22824621 # occ.  1.00000000
 
ion      s     py     pz     px    dxy    dyz    dz2    dxz  x2-y2    tot
    1  0.000  0.000  0.000  0.000  0.000  0.000  0.000  0.000  0.000  0.000
    2  0.000  0.000  0.995  0.000  0.000  0.000  0.000  0.000  0.000  0.995
    3  0.000  0.000  0.000  0.000  0.000  0.000  0.000  0.000  0.000  0.000
    4  0.000  0.000  0.000  0.000  0.000  0.000  0.000  0.000  0.000  0.000
tot    0.000  0.000  0.995  0.000  0.000  0.000  0.000  0.000  0.000  0.995
 
band     4 # energy  -39.85054165 # occ.  1.00000000
 
ion      s     py     pz     px    dxy    dyz    dz2    dxz  x2-y2    tot
    1  0.000  0.000  0.995  0.000  0.000  0.000  0.000  0.000  0.000  0.995
    2  0.000  0.000  0.000  0.000  0.000  0.000  0.000  0.000  0.000  0.000
    3  0.000  0.000  0.000  0.000  0.000  0.000  0.000  0.000  0.000  0.000
    4  0.000  0.000  0.000  0.000  0.000  0.000  0.000  0.000  0.000  0.000
tot    0.000  0.000  0.995  0.000  0.000  0.000  0.000  0.000  0.000  0.995
 
band     5 # energy  -39.84417066 # occ.  1.00000000
 
ion      s     py     pz     px    dxy    dyz    dz2    dxz  x2-y2    tot
    1  0.000  0.243  0.000  0.752  0.000  0.000  0.000  0.000  0.000  0.995
    2  0.000  0.000  0.000  0.000  0.000  0.000  0.000  0.000  0.000  0.000
    3  0.000  0.000  0.000  0.000  0.000  0.000  0.000  0.000  0.000  0.000
    4  0.000  0.000  0.000  0.000  0.000  0.000  0.000  0.000  0.000  0.000
tot    0.000  0.243  0.000  0.752  0.000  0.000  0.000  0.000  0.000  0.995
 
band     6 # energy  -39.84374781 # occ.  1.00000000
 
ion      s     py     pz     px    dxy    dyz    dz2    dxz  x2-y2    tot
    1  0.000  0.752  0.000  0.243  0.000  0.000  0.000  0.000  0.000  0.996
    2  0.000  0.000  0.000  0.000  0.000  0.000  0.000  0.000  0.000  0.000
    3  0.000  0.000  0.000  0.000  0.000  0.000  0.000  0.000  0.000  0.000
    4  0.000  0.000  0.000  0.000  0.000  0.000  0.000  0.000  0.000  0.000
tot    0.000  0.752  0.000  0.243  0.000  0.000  0.000  0.000  0.000  0.996
 
band     7 # energy   -5.22691549 # occ.  1.00000000
 
ion      s     py     pz     px    dxy    dyz    dz2    dxz  x2-y2    tot
    1  0.000  0.000  0.004  0.000  0.000  0.000  0.000  0.001  0.000  0.006
    2  0.023  0.001  0.000  0.002  0.000  0.000  0.000  0.000  0.000  0.025
    3  0.299  0.000  0.001  0.000  0.000  0.000  0.000  0.000  0.000  0.301
    4  0.299  0.000  0.001  0.000  0.000  0.000  0.000  0.000  0.000  0.301
tot    0.621  0.001  0.005  0.003  0.001  0.000  0.000  0.001  0.000  0.633
 
band     8 # energy   -5.19586919 # occ.  1.00000000
 
ion      s     py     pz     px    dxy    dyz    dz2    dxz  x2-y2    tot
    1  0.018  0.000  0.000  0.001  0.000  0.000  0.000  0.000  0.000  0.020
    2  0.000  0.000  0.004  0.000  0.001  0.001  0.000  0.002  0.000  0.008
    3  0.303  0.000  0.001  0.000  0.000  0.000  0.000  0.000  0.000  0.304
    4  0.303  0.000  0.001  0.000  0.000  0.000  0.000  0.000  0.000  0.304
tot    0.623  0.001  0.006  0.002  0.001  0.001  0.000  0.002  0.000  0.636
 
band     9 # energy    1.92872285 # occ.  1.00000000
 
ion      s     py     pz     px    dxy    dyz    dz2    dxz  x2-y2    tot
    1  0.039  0.000  0.000  0.000  0.000  0.000  0.001  0.001  0.000  0.043
    2  0.000  0.001  0.000  0.002  0.156  0.026  0.000  0.079  0.052  0.316
    3  0.012  0.013  0.054  0.039  0.000  0.000  0.000  0.000  0.000  0.118
    4  0.012  0.013  0.054  0.039  0.000  0.000  0.000  0.000  0.000  0.118
tot    0.063  0.026  0.108  0.079  0.156  0.027  0.002  0.080  0.052  0.593
 
band    10 # energy    2.08925554 # occ.  1.00000000
 
ion      s     py     pz     px    dxy    dyz    dz2    dxz  x2-y2    tot
    1  0.000  0.001  0.000  0.002  0.017  0.004  0.000  0.011  0.006  0.040
    2  0.076  0.000  0.000  0.000  0.009  0.005  0.066  0.015  0.003  0.175
    3  0.026  0.010  0.082  0.030  0.000  0.000  0.000  0.000  0.000  0.149
    4  0.026  0.010  0.082  0.030  0.000  0.000  0.000  0.000  0.000  0.149
tot    0.128  0.021  0.165  0.062  0.026  0.009  0.066  0.026  0.009  0.512
 
band    11 # energy    2.73459268 # occ.  1.00000000
 
ion      s     py     pz     px    dxy    dyz    dz2    dxz  x2-y2    tot
    1  0.000  0.002  0.000  0.001  0.000  0.000  0.000  0.000  0.000  0.004
    2  0.000  0.000  0.000  0.000  0.070  0.301  0.000  0.100  0.210  0.681
    3  0.000  0.042  0.000  0.014  0.000  0.001  0.000  0.000  0.000  0.057
    4  0.000  0.042  0.000  0.014  0.000  0.001  0.000  0.000  0.000  0.057
tot    0.000  0.086  0.000  0.029  0.070  0.302  0.000  0.101  0.211  0.800
 
band    12 # energy    2.80281226 # occ.  1.00000000
 
ion      s     py     pz     px    dxy    dyz    dz2    dxz  x2-y2    tot
    1  0.000  0.000  0.009  0.001  0.003  0.001  0.000  0.002  0.001  0.017
    2  0.003  0.001  0.000  0.004  0.013  0.029  0.454  0.087  0.004  0.595
    3  0.001  0.011  0.009  0.034  0.000  0.000  0.001  0.000  0.000  0.057
    4  0.001  0.011  0.009  0.034  0.000  0.000  0.001  0.000  0.000  0.057
tot    0.006  0.024  0.026  0.072  0.017  0.030  0.457  0.089  0.006  0.726
 
band    13 # energy    3.23283696 # occ.  1.00000000
 
ion      s     py     pz     px    dxy    dyz    dz2    dxz  x2-y2    tot
    1  0.000  0.000  0.000  0.000  0.001  0.003  0.000  0.001  0.002  0.008
    2  0.000  0.001  0.000  0.000  0.119  0.248  0.000  0.083  0.357  0.809
    3  0.000  0.015  0.000  0.005  0.000  0.000  0.000  0.000  0.000  0.020
    4  0.000  0.015  0.000  0.005  0.000  0.000  0.000  0.000  0.000  0.020
tot    0.000  0.031  0.000  0.010  0.120  0.252  0.000  0.084  0.360  0.857
 
band    14 # energy    3.33507180 # occ.  1.00000000
 
ion      s     py     pz     px    dxy    dyz    dz2    dxz  x2-y2    tot
    1  0.002  0.000  0.000  0.001  0.003  0.001  0.002  0.002  0.001  0.013
    2  0.010  0.000  0.001  0.000  0.247  0.087  0.100  0.260  0.082  0.786
    3  0.004  0.001  0.012  0.003  0.001  0.000  0.001  0.000  0.000  0.022
    4  0.004  0.001  0.012  0.003  0.001  0.000  0.001  0.000  0.000  0.022
tot    0.019  0.002  0.026  0.007  0.251  0.087  0.104  0.262  0.084  0.843
 
band    15 # energy    3.69621390 # occ.  1.00000000
 
ion      s     py     pz     px    dxy    dyz    dz2    dxz  x2-y2    tot
    1  0.010  0.002  0.000  0.007  0.001  0.002  0.049  0.006  0.000  0.077
    2  0.004  0.000  0.021  0.000  0.029  0.026  0.031  0.079  0.010  0.201
    3  0.007  0.009  0.098  0.026  0.001  0.000  0.001  0.000  0.000  0.142
    4  0.007  0.009  0.098  0.026  0.001  0.000  0.001  0.000  0.000  0.142
tot    0.028  0.020  0.217  0.059  0.032  0.029  0.082  0.086  0.011  0.562
 
band    16 # energy    4.39402917 # occ.  1.00000000
 
ion      s     py     pz     px    dxy    dyz    dz2    dxz  x2-y2    tot
    1  0.015  0.001  0.002  0.002  0.000  0.005  0.009  0.016  0.000  0.050
    2  0.000  0.003  0.007  0.008  0.194  0.018  0.094  0.054  0.065  0.443
    3  0.013  0.020  0.014  0.060  0.001  0.000  0.000  0.000  0.000  0.109
    4  0.013  0.020  0.014  0.060  0.001  0.000  0.000  0.000  0.000  0.109
tot    0.042  0.043  0.037  0.130  0.195  0.023  0.104  0.070  0.065  0.710
 
band    17 # energy    4.44208606 # occ.  1.00000000
 
ion      s     py     pz     px    dxy    dyz    dz2    dxz  x2-y2    tot
    1  0.000  0.001  0.000  0.000  0.018  0.086  0.000  0.029  0.054  0.188
    2  0.000  0.012  0.000  0.004  0.015  0.027  0.000  0.009  0.045  0.112
    3  0.000  0.123  0.000  0.041  0.000  0.000  0.000  0.000  0.001  0.166
    4  0.000  0.123  0.000  0.041  0.000  0.000  0.000  0.000  0.001  0.166
tot    0.000  0.259  0.000  0.086  0.034  0.114  0.000  0.038  0.101  0.631
 
band    18 # energy    4.96565200 # occ.  1.00000000
 
ion      s     py     pz     px    dxy    dyz    dz2    dxz  x2-y2    tot
    1  0.014  0.001  0.010  0.002  0.017  0.000  0.000  0.000  0.006  0.049
    2  0.005  0.002  0.001  0.007  0.017  0.034  0.156  0.103  0.006  0.330
    3  0.007  0.020  0.053  0.060  0.000  0.000  0.000  0.001  0.000  0.142
    4  0.007  0.020  0.053  0.060  0.000  0.000  0.000  0.001  0.000  0.142
tot    0.033  0.043  0.116  0.129  0.034  0.035  0.157  0.106  0.011  0.664
 
band    19 # energy    5.70593872 # occ.  1.00000000
 
ion      s     py     pz     px    dxy    dyz    dz2    dxz  x2-y2    tot
    1  0.000  0.013  0.000  0.004  0.014  0.024  0.000  0.008  0.043  0.106
    2  0.000  0.003  0.000  0.001  0.021  0.102  0.000  0.034  0.064  0.226
    3  0.000  0.117  0.000  0.039  0.000  0.002  0.000  0.001  0.001  0.159
    4  0.000  0.117  0.000  0.039  0.000  0.002  0.000  0.001  0.001  0.159
tot    0.000  0.249  0.000  0.083  0.036  0.129  0.000  0.043  0.109  0.649
 
band    20 # energy    6.80653747 # occ.  0.00000000
 
ion      s     py     pz     px    dxy    dyz    dz2    dxz  x2-y2    tot
    1  0.013  0.000  0.000  0.000  0.247  0.042  0.148  0.126  0.082  0.660
    2  0.014  0.001  0.005  0.002  0.002  0.001  0.001  0.004  0.001  0.031
    3  0.007  0.000  0.004  0.000  0.004  0.000  0.002  0.001  0.001  0.020
    4  0.007  0.000  0.004  0.000  0.004  0.000  0.002  0.001  0.001  0.020
tot    0.042  0.001  0.013  0.003  0.257  0.044  0.152  0.133  0.086  0.730
 
band    21 # energy    7.25971792 # occ.  0.00000000
 
ion      s     py     pz     px    dxy    dyz    dz2    dxz  x2-y2    tot
    1  0.000  0.000  0.001  0.000  0.210  0.081  0.116  0.243  0.070  0.721
    2  0.042  0.001  0.000  0.002  0.001  0.001  0.001  0.002  0.000  0.049
    3  0.017  0.001  0.004  0.003  0.000  0.001  0.001  0.004  0.000  0.031
    4  0.017  0.001  0.004  0.003  0.000  0.001  0.001  0.004  0.000  0.031
tot    0.076  0.003  0.008  0.009  0.210  0.084  0.118  0.253  0.070  0.832
 
band    22 # energy    7.44745850 # occ.  0.00000000
 
ion      s     py     pz     px    dxy    dyz    dz2    dxz  x2-y2    tot
    1  0.000  0.003  0.000  0.001  0.115  0.222  0.000  0.074  0.345  0.760
    2  0.000  0.000  0.000  0.000  0.002  0.012  0.000  0.004  0.007  0.026
    3  0.000  0.025  0.000  0.008  0.000  0.000  0.000  0.000  0.001  0.035
    4  0.000  0.025  0.000  0.008  0.000  0.000  0.000  0.000  0.001  0.035
tot    0.000  0.053  0.000  0.018  0.118  0.234  0.000  0.078  0.354  0.856
 
band    23 # energy    7.63238578 # occ.  0.00000000
 
ion      s     py     pz     px    dxy    dyz    dz2    dxz  x2-y2    tot
    1  0.001  0.001  0.000  0.003  0.017  0.071  0.462  0.212  0.006  0.773
    2  0.005  0.000  0.000  0.001  0.002  0.000  0.000  0.000  0.001  0.009
    3  0.002  0.006  0.013  0.018  0.000  0.000  0.001  0.000  0.000  0.041
    4  0.002  0.006  0.013  0.018  0.000  0.000  0.001  0.000  0.000  0.041
tot    0.010  0.013  0.027  0.039  0.019  0.071  0.463  0.213  0.006  0.863
 
band    24 # energy    7.89667885 # occ.  0.00000000
 
ion      s     py     pz     px    dxy    dyz    dz2    dxz  x2-y2    tot
    1  0.000  0.001  0.000  0.000  0.063  0.315  0.000  0.105  0.188  0.673
    2  0.000  0.016  0.000  0.005  0.001  0.003  0.000  0.001  0.004  0.031
    3  0.000  0.040  0.000  0.013  0.000  0.004  0.000  0.001  0.001  0.060
    4  0.000  0.040  0.000  0.013  0.000  0.004  0.000  0.001  0.001  0.060
tot    0.000  0.097  0.000  0.032  0.065  0.327  0.000  0.109  0.194  0.824
 

 k-point    13 :   -0.18421053 0.00000000 0.50000000     weight = 0.02500000

band     1 # energy  -44.23155890 # occ.  1.00000000
 
ion      s     py     pz     px    dxy    dyz    dz2    dxz  x2-y2    tot
    1  0.000  0.000  0.000  0.000  0.000  0.000  0.000  0.000  0.000  0.000
    2  0.000  0.242  0.000  0.753  0.000  0.000  0.000  0.000  0.000  0.995
    3  0.000  0.000  0.000  0.000  0.000  0.000  0.000  0.000  0.000  0.000
    4  0.000  0.000  0.000  0.000  0.000  0.000  0.000  0.000  0.000  0.000
tot    0.000  0.242  0.000  0.753  0.000  0.000  0.000  0.000  0.000  0.995
 
band     2 # energy  -44.23132931 # occ.  1.00000000
 
ion      s     py     pz     px    dxy    dyz    dz2    dxz  x2-y2    tot
    1  0.000  0.000  0.000  0.000  0.000  0.000  0.000  0.000  0.000  0.000
    2  0.000  0.753  0.000  0.242  0.000  0.000  0.000  0.000  0.000  0.995
    3  0.000  0.000  0.000  0.000  0.000  0.000  0.000  0.000  0.000  0.000
    4  0.000  0.000  0.000  0.000  0.000  0.000  0.000  0.000  0.000  0.000
tot    0.000  0.753  0.000  0.242  0.000  0.000  0.000  0.000  0.000  0.995
 
band     3 # energy  -44.22825872 # occ.  1.00000000
 
ion      s     py     pz     px    dxy    dyz    dz2    dxz  x2-y2    tot
    1  0.000  0.000  0.000  0.000  0.000  0.000  0.000  0.000  0.000  0.000
    2  0.000  0.000  0.995  0.000  0.000  0.000  0.000  0.000  0.000  0.995
    3  0.000  0.000  0.000  0.000  0.000  0.000  0.000  0.000  0.000  0.000
    4  0.000  0.000  0.000  0.000  0.000  0.000  0.000  0.000  0.000  0.000
tot    0.000  0.000  0.995  0.000  0.000  0.000  0.000  0.000  0.000  0.995
 
band     4 # energy  -39.85056107 # occ.  1.00000000
 
ion      s     py     pz     px    dxy    dyz    dz2    dxz  x2-y2    tot
    1  0.000  0.000  0.995  0.000  0.000  0.000  0.000  0.000  0.000  0.995
    2  0.000  0.000  0.000  0.000  0.000  0.000  0.000  0.000  0.000  0.000
    3  0.000  0.000  0.000  0.000  0.000  0.000  0.000  0.000  0.000  0.000
    4  0.000  0.000  0.000  0.000  0.000  0.000  0.000  0.000  0.000  0.000
tot    0.000  0.000  0.995  0.000  0.000  0.000  0.000  0.000  0.000  0.995
 
band     5 # energy  -39.84405534 # occ.  1.00000000
 
ion      s     py     pz     px    dxy    dyz    dz2    dxz  x2-y2    tot
    1  0.000  0.242  0.000  0.753  0.000  0.000  0.000  0.000  0.000  0.995
    2  0.000  0.000  0.000  0.000  0.000  0.000  0.000  0.000  0.000  0.000
    3  0.000  0.000  0.000  0.000  0.000  0.000  0.000  0.000  0.000  0.000
    4  0.000  0.000  0.000  0.000  0.000  0.000  0.000  0.000  0.000  0.000
tot    0.000  0.242  0.000  0.753  0.000  0.000  0.000  0.000  0.000  0.995
 
band     6 # energy  -39.84371527 # occ.  1.00000000
 
ion      s     py     pz     px    dxy    dyz    dz2    dxz  x2-y2    tot
    1  0.000  0.753  0.000  0.242  0.000  0.000  0.000  0.000  0.000  0.996
    2  0.000  0.000  0.000  0.000  0.000  0.000  0.000  0.000  0.000  0.000
    3  0.000  0.000  0.000  0.000  0.000  0.000  0.000  0.000  0.000  0.000
    4  0.000  0.000  0.000  0.000  0.000  0.000  0.000  0.000  0.000  0.000
tot    0.000  0.753  0.000  0.242  0.000  0.000  0.000  0.000  0.000  0.996
 
band     7 # energy   -5.28486040 # occ.  1.00000000
 
ion      s     py     pz     px    dxy    dyz    dz2    dxz  x2-y2    tot
    1  0.000  0.000  0.004  0.000  0.000  0.000  0.000  0.001  0.000  0.006
    2  0.024  0.000  0.000  0.001  0.000  0.000  0.000  0.000  0.000  0.026
    3  0.297  0.000  0.001  0.000  0.000  0.000  0.000  0.000  0.000  0.298
    4  0.297  0.000  0.001  0.000  0.000  0.000  0.000  0.000  0.000  0.298
tot    0.618  0.001  0.006  0.002  0.000  0.000  0.000  0.001  0.000  0.628
 
band     8 # energy   -5.25049538 # occ.  1.00000000
 
ion      s     py     pz     px    dxy    dyz    dz2    dxz  x2-y2    tot
    1  0.019  0.000  0.000  0.001  0.000  0.000  0.000  0.000  0.000  0.020
    2  0.000  0.000  0.005  0.000  0.001  0.000  0.000  0.001  0.000  0.008
    3  0.300  0.000  0.001  0.000  0.000  0.000  0.000  0.000  0.000  0.302
    4  0.300  0.000  0.001  0.000  0.000  0.000  0.000  0.000  0.000  0.302
tot    0.619  0.001  0.007  0.002  0.001  0.001  0.000  0.002  0.000  0.632
 
band     9 # energy    2.02577235 # occ.  1.00000000
 
ion      s     py     pz     px    dxy    dyz    dz2    dxz  x2-y2    tot
    1  0.038  0.000  0.000  0.000  0.000  0.000  0.002  0.001  0.000  0.041
    2  0.000  0.000  0.000  0.001  0.164  0.030  0.000  0.089  0.055  0.339
    3  0.012  0.012  0.057  0.035  0.000  0.000  0.000  0.000  0.000  0.115
    4  0.012  0.012  0.057  0.035  0.000  0.000  0.000  0.000  0.000  0.115
tot    0.062  0.024  0.113  0.071  0.164  0.030  0.003  0.090  0.055  0.610
 
band    10 # energy    2.15057002 # occ.  1.00000000
 
ion      s     py     pz     px    dxy    dyz    dz2    dxz  x2-y2    tot
    1  0.000  0.000  0.002  0.001  0.013  0.003  0.000  0.009  0.004  0.033
    2  0.070  0.000  0.000  0.000  0.007  0.002  0.127  0.007  0.002  0.217
    3  0.025  0.006  0.092  0.018  0.000  0.000  0.000  0.000  0.000  0.141
    4  0.025  0.006  0.092  0.018  0.000  0.000  0.000  0.000  0.000  0.141
tot    0.120  0.012  0.186  0.037  0.020  0.005  0.128  0.016  0.007  0.532
 
band    11 # energy    2.73523128 # occ.  1.00000000
 
ion      s     py     pz     px    dxy    dyz    dz2    dxz  x2-y2    tot
    1  0.000  0.002  0.000  0.001  0.000  0.000  0.000  0.000  0.000  0.003
    2  0.000  0.000  0.000  0.000  0.081  0.271  0.000  0.090  0.244  0.687
    3  0.000  0.041  0.000  0.014  0.000  0.001  0.000  0.000  0.000  0.056
    4  0.000  0.041  0.000  0.014  0.000  0.001  0.000  0.000  0.000  0.056
tot    0.000  0.084  0.000  0.028  0.082  0.273  0.000  0.091  0.245  0.802
 
band    12 # energy    2.89179517 # occ.  1.00000000
 
ion      s     py     pz     px    dxy    dyz    dz2    dxz  x2-y2    tot
    1  0.000  0.000  0.007  0.001  0.007  0.002  0.000  0.005  0.002  0.024
    2  0.008  0.001  0.000  0.003  0.030  0.039  0.381  0.117  0.010  0.589
    3  0.003  0.013  0.002  0.040  0.000  0.000  0.001  0.000  0.000  0.059
    4  0.003  0.013  0.002  0.040  0.000  0.000  0.001  0.000  0.000  0.059
tot    0.015  0.028  0.010  0.083  0.038  0.041  0.383  0.122  0.013  0.732
 
band    13 # energy    3.23825365 # occ.  1.00000000
 
ion      s     py     pz     px    dxy    dyz    dz2    dxz  x2-y2    tot
    1  0.000  0.000  0.000  0.000  0.001  0.003  0.000  0.001  0.002  0.007
    2  0.000  0.001  0.000  0.000  0.108  0.291  0.000  0.097  0.325  0.822
    3  0.000  0.012  0.000  0.004  0.000  0.000  0.000  0.000  0.001  0.017
    4  0.000  0.012  0.000  0.004  0.000  0.000  0.000  0.000  0.001  0.017
tot    0.000  0.026  0.000  0.009  0.109  0.293  0.000  0.098  0.328  0.863
 
band    14 # energy    3.34191445 # occ.  1.00000000
 
ion      s     py     pz     px    dxy    dyz    dz2    dxz  x2-y2    tot
    1  0.004  0.000  0.001  0.001  0.004  0.001  0.004  0.002  0.001  0.017
    2  0.011  0.000  0.002  0.000  0.262  0.067  0.114  0.200  0.087  0.742
    3  0.005  0.002  0.017  0.006  0.000  0.000  0.001  0.000  0.000  0.031
    4  0.005  0.002  0.017  0.006  0.000  0.000  0.001  0.000  0.000  0.031
tot    0.024  0.004  0.037  0.012  0.267  0.068  0.119  0.203  0.089  0.822
 
band    15 # energy    3.59979308 # occ.  1.00000000
 
ion      s     py     pz     px    dxy    dyz    dz2    dxz  x2-y2    tot
    1  0.014  0.002  0.000  0.005  0.001  0.001  0.041  0.004  0.000  0.069
    2  0.005  0.000  0.017  0.000  0.028  0.044  0.046  0.133  0.009  0.283
    3  0.009  0.007  0.088  0.020  0.001  0.000  0.001  0.001  0.000  0.127
    4  0.009  0.007  0.088  0.020  0.001  0.000  0.001  0.001  0.000  0.127
tot    0.037  0.015  0.194  0.044  0.031  0.046  0.089  0.138  0.010  0.605
 
band    16 # energy    4.46938232 # occ.  1.00000000
 
ion      s     py     pz     px    dxy    dyz    dz2    dxz  x2-y2    tot
    1  0.000  0.001  0.000  0.000  0.022  0.083  0.000  0.028  0.065  0.198
    2  0.000  0.011  0.000  0.004  0.012  0.026  0.000  0.009  0.035  0.095
    3  0.000  0.125  0.000  0.042  0.000  0.000  0.000  0.000  0.001  0.168
    4  0.000  0.125  0.000  0.042  0.000  0.000  0.000  0.000  0.001  0.168
tot    0.000  0.261  0.000  0.087  0.034  0.110  0.000  0.037  0.101  0.629
 
band    17 # energy    4.59860659 # occ.  1.00000000
 
ion      s     py     pz     px    dxy    dyz    dz2    dxz  x2-y2    tot
    1  0.009  0.001  0.004  0.002  0.001  0.007  0.012  0.021  0.000  0.058
    2  0.000  0.004  0.007  0.011  0.137  0.007  0.121  0.022  0.046  0.353
    3  0.009  0.024  0.024  0.073  0.001  0.000  0.000  0.000  0.000  0.133
    4  0.009  0.024  0.024  0.073  0.001  0.000  0.000  0.000  0.000  0.133
tot    0.027  0.053  0.060  0.159  0.139  0.014  0.134  0.043  0.046  0.676
 
band    18 # energy    4.98007922 # occ.  1.00000000
 
ion      s     py     pz     px    dxy    dyz    dz2    dxz  x2-y2    tot
    1  0.016  0.001  0.007  0.004  0.026  0.000  0.004  0.000  0.009  0.068
    2  0.006  0.001  0.003  0.003  0.038  0.036  0.109  0.108  0.013  0.318
    3  0.010  0.023  0.036  0.068  0.000  0.000  0.001  0.001  0.000  0.138
    4  0.010  0.023  0.036  0.068  0.000  0.000  0.001  0.001  0.000  0.138
tot    0.042  0.047  0.081  0.142  0.064  0.037  0.114  0.111  0.021  0.662
 
band    19 # energy    5.79067154 # occ.  1.00000000
 
ion      s     py     pz     px    dxy    dyz    dz2    dxz  x2-y2    tot
    1  0.000  0.012  0.000  0.004  0.014  0.030  0.000  0.010  0.042  0.112
    2  0.000  0.003  0.000  0.001  0.024  0.089  0.000  0.030  0.071  0.218
    3  0.000  0.119  0.000  0.040  0.000  0.001  0.000  0.000  0.001  0.161
    4  0.000  0.119  0.000  0.040  0.000  0.001  0.000  0.000  0.001  0.161
tot    0.000  0.252  0.000  0.084  0.038  0.122  0.000  0.041  0.115  0.653
 
band    20 # energy    6.85002563 # occ.  0.00000000
 
ion      s     py     pz     px    dxy    dyz    dz2    dxz  x2-y2    tot
    1  0.013  0.000  0.000  0.000  0.220  0.052  0.167  0.156  0.073  0.681
    2  0.009  0.001  0.004  0.003  0.002  0.001  0.001  0.003  0.001  0.024
    3  0.007  0.000  0.004  0.001  0.004  0.000  0.002  0.001  0.001  0.019
    4  0.007  0.000  0.004  0.001  0.004  0.000  0.002  0.001  0.001  0.019
tot    0.035  0.001  0.013  0.004  0.229  0.054  0.171  0.161  0.076  0.743
 
band    21 # energy    7.31981705 # occ.  0.00000000
 
ion      s     py     pz     px    dxy    dyz    dz2    dxz  x2-y2    tot
    1  0.000  0.000  0.001  0.000  0.241  0.068  0.103  0.204  0.080  0.700
    2  0.040  0.001  0.000  0.004  0.000  0.001  0.002  0.003  0.000  0.051
    3  0.017  0.002  0.005  0.007  0.000  0.001  0.001  0.004  0.000  0.037
    4  0.017  0.002  0.005  0.007  0.000  0.001  0.001  0.004  0.000  0.037
tot    0.074  0.006  0.012  0.018  0.242  0.072  0.107  0.215  0.081  0.826
 
band    22 # energy    7.40851899 # occ.  0.00000000
 
ion      s     py     pz     px    dxy    dyz    dz2    dxz  x2-y2    tot
    1  0.000  0.003  0.000  0.001  0.100  0.255  0.000  0.085  0.300  0.745
    2  0.000  0.000  0.000  0.000  0.003  0.011  0.000  0.004  0.009  0.028
    3  0.000  0.027  0.000  0.009  0.000  0.000  0.000  0.000  0.001  0.038
    4  0.000  0.027  0.000  0.009  0.000  0.000  0.000  0.000  0.001  0.038
tot    0.000  0.057  0.000  0.019  0.104  0.267  0.000  0.089  0.312  0.849
 
band    23 # energy    7.58826558 # occ.  0.00000000
 
ion      s     py     pz     px    dxy    dyz    dz2    dxz  x2-y2    tot
    1  0.002  0.001  0.000  0.002  0.013  0.073  0.443  0.218  0.004  0.756
    2  0.004  0.000  0.000  0.001  0.003  0.000  0.000  0.000  0.001  0.011
    3  0.002  0.007  0.013  0.020  0.000  0.000  0.001  0.000  0.000  0.044
    4  0.002  0.007  0.013  0.020  0.000  0.000  0.001  0.000  0.000  0.044
tot    0.011  0.015  0.025  0.044  0.017  0.073  0.445  0.219  0.006  0.855
 
band    24 # energy    7.94609889 # occ.  0.00000000
 
ion      s     py     pz     px    dxy    dyz    dz2    dxz  x2-y2    tot
    1  0.000  0.002  0.000  0.001  0.073  0.278  0.000  0.093  0.218  0.664
    2  0.000  0.015  0.000  0.005  0.001  0.004  0.000  0.001  0.004  0.030
    3  0.000  0.044  0.000  0.015  0.000  0.004  0.000  0.001  0.001  0.066
    4  0.000  0.044  0.000  0.015  0.000  0.004  0.000  0.001  0.001  0.066
tot    0.000  0.105  0.000  0.035  0.074  0.290  0.000  0.097  0.223  0.825
 

 k-point    14 :   -0.15789474 0.00000000 0.50000000     weight = 0.02500000

band     1 # energy  -44.23147672 # occ.  1.00000000
 
ion      s     py     pz     px    dxy    dyz    dz2    dxz  x2-y2    tot
    1  0.000  0.000  0.000  0.000  0.000  0.000  0.000  0.000  0.000  0.000
    2  0.000  0.240  0.000  0.755  0.000  0.000  0.000  0.000  0.000  0.995
    3  0.000  0.000  0.000  0.000  0.000  0.000  0.000  0.000  0.000  0.000
    4  0.000  0.000  0.000  0.000  0.000  0.000  0.000  0.000  0.000  0.000
tot    0.000  0.240  0.000  0.755  0.000  0.000  0.000  0.000  0.000  0.995
 
band     2 # energy  -44.23130360 # occ.  1.00000000
 
ion      s     py     pz     px    dxy    dyz    dz2    dxz  x2-y2    tot
    1  0.000  0.000  0.000  0.000  0.000  0.000  0.000  0.000  0.000  0.000
    2  0.000  0.755  0.000  0.240  0.000  0.000  0.000  0.000  0.000  0.995
    3  0.000  0.000  0.000  0.000  0.000  0.000  0.000  0.000  0.000  0.000
    4  0.000  0.000  0.000  0.000  0.000  0.000  0.000  0.000  0.000  0.000
tot    0.000  0.755  0.000  0.240  0.000  0.000  0.000  0.000  0.000  0.995
 
band     3 # energy  -44.22825957 # occ.  1.00000000
 
ion      s     py     pz     px    dxy    dyz    dz2    dxz  x2-y2    tot
    1  0.000  0.000  0.000  0.000  0.000  0.000  0.000  0.000  0.000  0.000
    2  0.000  0.000  0.995  0.000  0.000  0.000  0.000  0.000  0.000  0.995
    3  0.000  0.000  0.000  0.000  0.000  0.000  0.000  0.000  0.000  0.000
    4  0.000  0.000  0.000  0.000  0.000  0.000  0.000  0.000  0.000  0.000
tot    0.000  0.000  0.995  0.000  0.000  0.000  0.000  0.000  0.000  0.995
 
band     4 # energy  -39.85056706 # occ.  1.00000000
 
ion      s     py     pz     px    dxy    dyz    dz2    dxz  x2-y2    tot
    1  0.000  0.000  0.995  0.000  0.000  0.000  0.000  0.000  0.000  0.995
    2  0.000  0.000  0.000  0.000  0.000  0.000  0.000  0.000  0.000  0.000
    3  0.000  0.000  0.000  0.000  0.000  0.000  0.000  0.000  0.000  0.000
    4  0.000  0.000  0.000  0.000  0.000  0.000  0.000  0.000  0.000  0.000
tot    0.000  0.000  0.995  0.000  0.000  0.000  0.000  0.000  0.000  0.995
 
band     5 # energy  -39.84393519 # occ.  1.00000000
 
ion      s     py     pz     px    dxy    dyz    dz2    dxz  x2-y2    tot
    1  0.000  0.240  0.000  0.755  0.000  0.000  0.000  0.000  0.000  0.995
    2  0.000  0.000  0.000  0.000  0.000  0.000  0.000  0.000  0.000  0.000
    3  0.000  0.000  0.000  0.000  0.000  0.000  0.000  0.000  0.000  0.000
    4  0.000  0.000  0.000  0.000  0.000  0.000  0.000  0.000  0.000  0.000
tot    0.000  0.240  0.000  0.755  0.000  0.000  0.000  0.000  0.000  0.996
 
band     6 # energy  -39.84367878 # occ.  1.00000000
 
ion      s     py     pz     px    dxy    dyz    dz2    dxz  x2-y2    tot
    1  0.000  0.755  0.000  0.240  0.000  0.000  0.000  0.000  0.000  0.996
    2  0.000  0.000  0.000  0.000  0.000  0.000  0.000  0.000  0.000  0.000
    3  0.000  0.000  0.000  0.000  0.000  0.000  0.000  0.000  0.000  0.000
    4  0.000  0.000  0.000  0.000  0.000  0.000  0.000  0.000  0.000  0.000
tot    0.000  0.755  0.000  0.240  0.000  0.000  0.000  0.000  0.000  0.996
 
band     7 # energy   -5.33723644 # occ.  1.00000000
 
ion      s     py     pz     px    dxy    dyz    dz2    dxz  x2-y2    tot
    1  0.000  0.000  0.004  0.000  0.000  0.000  0.000  0.001  0.000  0.005
    2  0.026  0.000  0.000  0.001  0.000  0.000  0.000  0.000  0.000  0.027
    3  0.294  0.000  0.001  0.000  0.000  0.000  0.000  0.000  0.000  0.296
    4  0.294  0.000  0.001  0.000  0.000  0.000  0.000  0.000  0.000  0.296
tot    0.615  0.001  0.006  0.002  0.000  0.000  0.000  0.001  0.000  0.625
 
band     8 # energy   -5.29989818 # occ.  1.00000000
 
ion      s     py     pz     px    dxy    dyz    dz2    dxz  x2-y2    tot
    1  0.020  0.000  0.000  0.001  0.000  0.000  0.000  0.000  0.000  0.021
    2  0.000  0.000  0.005  0.000  0.000  0.000  0.000  0.001  0.000  0.007
    3  0.298  0.000  0.001  0.000  0.000  0.000  0.000  0.000  0.000  0.300
    4  0.298  0.000  0.001  0.000  0.000  0.000  0.000  0.000  0.000  0.300
tot    0.617  0.000  0.007  0.001  0.000  0.000  0.000  0.001  0.000  0.628
 
band     9 # energy    2.12299677 # occ.  1.00000000
 
ion      s     py     pz     px    dxy    dyz    dz2    dxz  x2-y2    tot
    1  0.036  0.000  0.000  0.000  0.000  0.000  0.004  0.000  0.000  0.040
    2  0.000  0.000  0.000  0.001  0.169  0.032  0.001  0.097  0.056  0.357
    3  0.012  0.010  0.059  0.031  0.000  0.000  0.000  0.000  0.000  0.113
    4  0.012  0.010  0.059  0.031  0.000  0.000  0.000  0.000  0.000  0.113
tot    0.060  0.021  0.118  0.063  0.169  0.032  0.005  0.097  0.056  0.623
 
band    10 # energy    2.17716219 # occ.  1.00000000
 
ion      s     py     pz     px    dxy    dyz    dz2    dxz  x2-y2    tot
    1  0.000  0.000  0.003  0.000  0.009  0.002  0.000  0.007  0.003  0.025
    2  0.063  0.000  0.000  0.000  0.007  0.000  0.184  0.001  0.002  0.259
    3  0.023  0.003  0.096  0.009  0.000  0.000  0.000  0.000  0.000  0.133
    4  0.023  0.003  0.096  0.009  0.000  0.000  0.000  0.000  0.000  0.133
tot    0.110  0.007  0.196  0.020  0.016  0.003  0.185  0.008  0.005  0.550
 
band    11 # energy    2.73323925 # occ.  1.00000000
 
ion      s     py     pz     px    dxy    dyz    dz2    dxz  x2-y2    tot
    1  0.000  0.001  0.000  0.000  0.000  0.000  0.000  0.000  0.000  0.003
    2  0.000  0.000  0.000  0.000  0.092  0.244  0.000  0.081  0.275  0.692
    3  0.000  0.040  0.000  0.013  0.000  0.001  0.000  0.000  0.000  0.055
    4  0.000  0.040  0.000  0.013  0.000  0.001  0.000  0.000  0.000  0.055
tot    0.000  0.081  0.000  0.027  0.092  0.246  0.000  0.082  0.276  0.804
 
band    12 # energy    3.00741838 # occ.  1.00000000
 
ion      s     py     pz     px    dxy    dyz    dz2    dxz  x2-y2    tot
    1  0.000  0.000  0.004  0.001  0.010  0.002  0.000  0.006  0.003  0.028
    2  0.011  0.001  0.000  0.002  0.060  0.055  0.293  0.164  0.020  0.605
    3  0.005  0.013  0.000  0.039  0.001  0.000  0.001  0.000  0.000  0.058
    4  0.005  0.013  0.000  0.039  0.001  0.000  0.001  0.000  0.000  0.058
tot    0.021  0.027  0.005  0.080  0.071  0.057  0.294  0.170  0.024  0.749
 
band    13 # energy    3.24817776 # occ.  1.00000000
 
ion      s     py     pz     px    dxy    dyz    dz2    dxz  x2-y2    tot
    1  0.000  0.000  0.000  0.000  0.001  0.002  0.000  0.001  0.002  0.006
    2  0.000  0.001  0.000  0.000  0.099  0.330  0.000  0.110  0.297  0.837
    3  0.000  0.010  0.000  0.003  0.000  0.000  0.000  0.000  0.001  0.014
    4  0.000  0.010  0.000  0.003  0.000  0.000  0.000  0.000  0.001  0.014
tot    0.000  0.021  0.000  0.007  0.100  0.332  0.000  0.111  0.300  0.871
 
band    14 # energy    3.34170171 # occ.  1.00000000
 
ion      s     py     pz     px    dxy    dyz    dz2    dxz  x2-y2    tot
    1  0.009  0.001  0.000  0.002  0.004  0.001  0.012  0.002  0.001  0.031
    2  0.010  0.000  0.005  0.000  0.278  0.029  0.110  0.086  0.093  0.609
    3  0.007  0.004  0.035  0.011  0.000  0.000  0.001  0.000  0.000  0.058
    4  0.007  0.004  0.035  0.011  0.000  0.000  0.001  0.000  0.000  0.058
tot    0.032  0.008  0.076  0.023  0.282  0.029  0.124  0.088  0.094  0.756
 
band    15 # energy    3.50597419 # occ.  1.00000000
 
ion      s     py     pz     px    dxy    dyz    dz2    dxz  x2-y2    tot
    1  0.013  0.001  0.000  0.003  0.003  0.002  0.029  0.005  0.001  0.055
    2  0.009  0.000  0.012  0.000  0.005  0.073  0.096  0.219  0.002  0.415
    3  0.010  0.005  0.068  0.016  0.001  0.000  0.001  0.000  0.000  0.101
    4  0.010  0.005  0.068  0.016  0.001  0.000  0.001  0.000  0.000  0.101
tot    0.042  0.011  0.148  0.034  0.009  0.075  0.126  0.224  0.003  0.673
 
band    16 # energy    4.48821504 # occ.  1.00000000
 
ion      s     py     pz     px    dxy    dyz    dz2    dxz  x2-y2    tot
    1  0.000  0.001  0.000  0.000  0.025  0.080  0.000  0.027  0.075  0.208
    2  0.000  0.010  0.000  0.003  0.008  0.023  0.000  0.008  0.025  0.077
    3  0.000  0.126  0.000  0.042  0.000  0.001  0.000  0.000  0.001  0.170
    4  0.000  0.126  0.000  0.042  0.000  0.001  0.000  0.000  0.001  0.170
tot    0.000  0.264  0.000  0.088  0.034  0.104  0.000  0.035  0.101  0.626
 
band    17 # energy    4.72306285 # occ.  1.00000000
 
ion      s     py     pz     px    dxy    dyz    dz2    dxz  x2-y2    tot
    1  0.002  0.000  0.008  0.000  0.016  0.008  0.007  0.025  0.005  0.071
    2  0.003  0.004  0.003  0.013  0.058  0.000  0.180  0.000  0.019  0.280
    3  0.004  0.027  0.041  0.081  0.000  0.000  0.000  0.000  0.000  0.154
    4  0.004  0.027  0.041  0.081  0.000  0.000  0.000  0.000  0.000  0.154
tot    0.011  0.058  0.093  0.174  0.075  0.008  0.188  0.025  0.025  0.658
 
band    18 # energy    5.08674832 # occ.  1.00000000
 
ion      s     py     pz     px    dxy    dyz    dz2    dxz  x2-y2    tot
    1  0.021  0.002  0.002  0.006  0.024  0.001  0.017  0.004  0.008  0.086
    2  0.005  0.000  0.008  0.000  0.091  0.037  0.029  0.110  0.030  0.309
    3  0.014  0.026  0.011  0.078  0.000  0.000  0.001  0.001  0.000  0.132
    4  0.014  0.026  0.011  0.078  0.000  0.000  0.001  0.001  0.000  0.132
tot    0.055  0.054  0.031  0.163  0.116  0.039  0.048  0.116  0.039  0.660
 
band    19 # energy    5.88658861 # occ.  1.00000000
 
ion      s     py     pz     px    dxy    dyz    dz2    dxz  x2-y2    tot
    1  0.000  0.011  0.000  0.004  0.013  0.036  0.000  0.012  0.040  0.116
    2  0.000  0.003  0.000  0.001  0.025  0.079  0.000  0.026  0.076  0.212
    3  0.000  0.121  0.000  0.040  0.000  0.001  0.000  0.000  0.001  0.165
    4  0.000  0.121  0.000  0.040  0.000  0.001  0.000  0.000  0.001  0.165
tot    0.000  0.257  0.000  0.086  0.040  0.117  0.000  0.039  0.119  0.658
 
band    20 # energy    6.88782371 # occ.  0.00000000
 
ion      s     py     pz     px    dxy    dyz    dz2    dxz  x2-y2    tot
    1  0.012  0.000  0.000  0.000  0.192  0.063  0.184  0.188  0.064  0.703
    2  0.005  0.001  0.004  0.003  0.001  0.001  0.001  0.002  0.000  0.018
    3  0.006  0.000  0.004  0.000  0.003  0.000  0.002  0.001  0.001  0.018
    4  0.006  0.000  0.004  0.000  0.003  0.000  0.002  0.001  0.001  0.018
tot    0.030  0.001  0.012  0.003  0.200  0.064  0.188  0.191  0.067  0.756
 
band    21 # energy    7.35798957 # occ.  0.00000000
 
ion      s     py     pz     px    dxy    dyz    dz2    dxz  x2-y2    tot
    1  0.000  0.003  0.000  0.001  0.089  0.279  0.000  0.093  0.267  0.731
    2  0.000  0.000  0.000  0.000  0.004  0.011  0.000  0.004  0.011  0.029
    3  0.000  0.028  0.000  0.009  0.001  0.000  0.000  0.000  0.002  0.040
    4  0.000  0.028  0.000  0.009  0.001  0.000  0.000  0.000  0.002  0.040
tot    0.000  0.060  0.000  0.020  0.094  0.291  0.000  0.097  0.281  0.841
 
band    22 # energy    7.40631989 # occ.  0.00000000
 
ion      s     py     pz     px    dxy    dyz    dz2    dxz  x2-y2    tot
    1  0.000  0.000  0.002  0.001  0.280  0.036  0.153  0.109  0.093  0.676
    2  0.032  0.002  0.000  0.005  0.000  0.001  0.004  0.004  0.000  0.048
    3  0.014  0.005  0.008  0.014  0.000  0.001  0.001  0.004  0.000  0.047
    4  0.014  0.005  0.008  0.014  0.000  0.001  0.001  0.004  0.000  0.047
tot    0.061  0.012  0.018  0.035  0.281  0.040  0.158  0.120  0.093  0.818
 
band    23 # energy    7.54185989 # occ.  0.00000000
 
ion      s     py     pz     px    dxy    dyz    dz2    dxz  x2-y2    tot
    1  0.003  0.001  0.000  0.002  0.000  0.092  0.360  0.275  0.000  0.732
    2  0.008  0.001  0.000  0.002  0.005  0.000  0.001  0.000  0.002  0.019
    3  0.005  0.007  0.010  0.021  0.000  0.000  0.001  0.001  0.000  0.046
    4  0.005  0.007  0.010  0.021  0.000  0.000  0.001  0.001  0.000  0.046
tot    0.021  0.015  0.021  0.046  0.006  0.092  0.362  0.277  0.002  0.844
 
band    24 # energy    7.99800278 # occ.  0.00000000
 
ion      s     py     pz     px    dxy    dyz    dz2    dxz  x2-y2    tot
    1  0.000  0.002  0.000  0.001  0.080  0.250  0.000  0.083  0.240  0.656
    2  0.000  0.015  0.000  0.005  0.001  0.004  0.000  0.001  0.003  0.028
    3  0.000  0.048  0.000  0.016  0.000  0.004  0.000  0.001  0.001  0.071
    4  0.000  0.048  0.000  0.016  0.000  0.004  0.000  0.001  0.001  0.071
tot    0.000  0.113  0.000  0.038  0.081  0.262  0.000  0.087  0.244  0.826
 

 k-point    15 :   -0.13157895 0.00000000 0.50000000     weight = 0.02500000

band     1 # energy  -44.23140925 # occ.  1.00000000
 
ion      s     py     pz     px    dxy    dyz    dz2    dxz  x2-y2    tot
    1  0.000  0.000  0.000  0.000  0.000  0.000  0.000  0.000  0.000  0.000
    2  0.000  0.237  0.000  0.758  0.000  0.000  0.000  0.000  0.000  0.995
    3  0.000  0.000  0.000  0.000  0.000  0.000  0.000  0.000  0.000  0.000
    4  0.000  0.000  0.000  0.000  0.000  0.000  0.000  0.000  0.000  0.000
tot    0.000  0.237  0.000  0.758  0.000  0.000  0.000  0.000  0.000  0.995
 
band     2 # energy  -44.23128183 # occ.  1.00000000
 
ion      s     py     pz     px    dxy    dyz    dz2    dxz  x2-y2    tot
    1  0.000  0.000  0.000  0.000  0.000  0.000  0.000  0.000  0.000  0.000
    2  0.000  0.758  0.000  0.237  0.000  0.000  0.000  0.000  0.000  0.995
    3  0.000  0.000  0.000  0.000  0.000  0.000  0.000  0.000  0.000  0.000
    4  0.000  0.000  0.000  0.000  0.000  0.000  0.000  0.000  0.000  0.000
tot    0.000  0.758  0.000  0.237  0.000  0.000  0.000  0.000  0.000  0.995
 
band     3 # energy  -44.22826996 # occ.  1.00000000
 
ion      s     py     pz     px    dxy    dyz    dz2    dxz  x2-y2    tot
    1  0.000  0.000  0.000  0.000  0.000  0.000  0.000  0.000  0.000  0.000
    2  0.000  0.000  0.995  0.000  0.000  0.000  0.000  0.000  0.000  0.995
    3  0.000  0.000  0.000  0.000  0.000  0.000  0.000  0.000  0.000  0.000
    4  0.000  0.000  0.000  0.000  0.000  0.000  0.000  0.000  0.000  0.000
tot    0.000  0.000  0.995  0.000  0.000  0.000  0.000  0.000  0.000  0.995
 
band     4 # energy  -39.85058335 # occ.  1.00000000
 
ion      s     py     pz     px    dxy    dyz    dz2    dxz  x2-y2    tot
    1  0.000  0.000  0.995  0.000  0.000  0.000  0.000  0.000  0.000  0.995
    2  0.000  0.000  0.000  0.000  0.000  0.000  0.000  0.000  0.000  0.000
    3  0.000  0.000  0.000  0.000  0.000  0.000  0.000  0.000  0.000  0.000
    4  0.000  0.000  0.000  0.000  0.000  0.000  0.000  0.000  0.000  0.000
tot    0.000  0.000  0.995  0.000  0.000  0.000  0.000  0.000  0.000  0.995
 
band     5 # energy  -39.84383595 # occ.  1.00000000
 
ion      s     py     pz     px    dxy    dyz    dz2    dxz  x2-y2    tot
    1  0.000  0.237  0.000  0.759  0.000  0.000  0.000  0.000  0.000  0.995
    2  0.000  0.000  0.000  0.000  0.000  0.000  0.000  0.000  0.000  0.000
    3  0.000  0.000  0.000  0.000  0.000  0.000  0.000  0.000  0.000  0.000
    4  0.000  0.000  0.000  0.000  0.000  0.000  0.000  0.000  0.000  0.000
tot    0.000  0.237  0.000  0.759  0.000  0.000  0.000  0.000  0.000  0.996
 
band     6 # energy  -39.84364834 # occ.  1.00000000
 
ion      s     py     pz     px    dxy    dyz    dz2    dxz  x2-y2    tot
    1  0.000  0.759  0.000  0.237  0.000  0.000  0.000  0.000  0.000  0.996
    2  0.000  0.000  0.000  0.000  0.000  0.000  0.000  0.000  0.000  0.000
    3  0.000  0.000  0.000  0.000  0.000  0.000  0.000  0.000  0.000  0.000
    4  0.000  0.000  0.000  0.000  0.000  0.000  0.000  0.000  0.000  0.000
tot    0.000  0.759  0.000  0.237  0.000  0.000  0.000  0.000  0.000  0.996
 
band     7 # energy   -5.38307038 # occ.  1.00000000
 
ion      s     py     pz     px    dxy    dyz    dz2    dxz  x2-y2    tot
    1  0.000  0.000  0.004  0.000  0.000  0.000  0.000  0.000  0.000  0.005
    2  0.027  0.000  0.000  0.001  0.000  0.000  0.000  0.000  0.000  0.028
    3  0.293  0.000  0.001  0.000  0.000  0.000  0.000  0.000  0.000  0.294
    4  0.293  0.000  0.001  0.000  0.000  0.000  0.000  0.000  0.000  0.294
tot    0.612  0.000  0.007  0.001  0.000  0.000  0.000  0.000  0.000  0.621
 
band     8 # energy   -5.34316528 # occ.  1.00000000
 
ion      s     py     pz     px    dxy    dyz    dz2    dxz  x2-y2    tot
    1  0.021  0.000  0.000  0.001  0.000  0.000  0.000  0.000  0.000  0.022
    2  0.000  0.000  0.005  0.000  0.000  0.000  0.000  0.001  0.000  0.007
    3  0.296  0.000  0.001  0.000  0.000  0.000  0.000  0.000  0.000  0.298
    4  0.296  0.000  0.001  0.000  0.000  0.000  0.000  0.000  0.000  0.298
tot    0.614  0.000  0.008  0.001  0.000  0.000  0.000  0.001  0.000  0.625
 
band     9 # energy    2.18165238 # occ.  1.00000000
 
ion      s     py     pz     px    dxy    dyz    dz2    dxz  x2-y2    tot
    1  0.000  0.000  0.005  0.000  0.006  0.001  0.000  0.004  0.002  0.019
    2  0.058  0.000  0.000  0.001  0.000  0.001  0.227  0.004  0.000  0.291
    3  0.021  0.002  0.097  0.005  0.000  0.000  0.001  0.000  0.000  0.126
    4  0.021  0.002  0.097  0.005  0.000  0.000  0.001  0.000  0.000  0.126
tot    0.101  0.004  0.198  0.011  0.006  0.003  0.228  0.008  0.002  0.561
 
band    10 # energy    2.22178743 # occ.  1.00000000
 
ion      s     py     pz     px    dxy    dyz    dz2    dxz  x2-y2    tot
    1  0.034  0.000  0.000  0.000  0.000  0.000  0.005  0.001  0.000  0.040
    2  0.001  0.000  0.001  0.000  0.180  0.033  0.002  0.098  0.060  0.373
    3  0.012  0.009  0.061  0.028  0.000  0.000  0.000  0.000  0.000  0.111
    4  0.012  0.009  0.061  0.028  0.000  0.000  0.000  0.000  0.000  0.111
tot    0.059  0.019  0.123  0.056  0.180  0.033  0.007  0.099  0.060  0.634
 
band    11 # energy    2.72954307 # occ.  1.00000000
 
ion      s     py     pz     px    dxy    dyz    dz2    dxz  x2-y2    tot
    1  0.000  0.001  0.000  0.000  0.000  0.000  0.000  0.000  0.000  0.002
    2  0.000  0.000  0.000  0.000  0.100  0.221  0.000  0.074  0.301  0.696
    3  0.000  0.039  0.000  0.013  0.000  0.001  0.000  0.000  0.000  0.053
    4  0.000  0.039  0.000  0.013  0.000  0.001  0.000  0.000  0.000  0.053
tot    0.000  0.079  0.000  0.026  0.101  0.223  0.000  0.074  0.302  0.805
 
band    12 # energy    3.12419310 # occ.  1.00000000
 
ion      s     py     pz     px    dxy    dyz    dz2    dxz  x2-y2    tot
    1  0.000  0.000  0.002  0.001  0.009  0.002  0.000  0.006  0.003  0.023
    2  0.010  0.000  0.000  0.001  0.122  0.079  0.185  0.237  0.041  0.675
    3  0.004  0.010  0.001  0.029  0.001  0.000  0.000  0.000  0.000  0.046
    4  0.004  0.010  0.001  0.029  0.001  0.000  0.000  0.000  0.000  0.046
tot    0.019  0.020  0.004  0.060  0.132  0.081  0.186  0.243  0.044  0.790
 
band    13 # energy    3.26075595 # occ.  1.00000000
 
ion      s     py     pz     px    dxy    dyz    dz2    dxz  x2-y2    tot
    1  0.000  0.000  0.000  0.000  0.001  0.001  0.000  0.000  0.002  0.005
    2  0.000  0.000  0.000  0.000  0.091  0.365  0.000  0.122  0.273  0.851
    3  0.000  0.007  0.000  0.002  0.000  0.000  0.000  0.000  0.001  0.011
    4  0.000  0.007  0.000  0.002  0.000  0.000  0.000  0.000  0.001  0.011
tot    0.000  0.016  0.000  0.005  0.092  0.367  0.000  0.122  0.276  0.878
 
band    14 # energy    3.29915915 # occ.  1.00000000
 
ion      s     py     pz     px    dxy    dyz    dz2    dxz  x2-y2    tot
    1  0.021  0.001  0.000  0.003  0.002  0.000  0.029  0.000  0.001  0.057
    2  0.004  0.000  0.012  0.000  0.217  0.001  0.045  0.002  0.072  0.353
    3  0.010  0.006  0.075  0.017  0.000  0.000  0.001  0.001  0.000  0.110
    4  0.010  0.006  0.075  0.017  0.000  0.000  0.001  0.001  0.000  0.110
tot    0.045  0.012  0.162  0.037  0.219  0.001  0.076  0.004  0.073  0.631
 
band    15 # energy    3.46598422 # occ.  1.00000000
 
ion      s     py     pz     px    dxy    dyz    dz2    dxz  x2-y2    tot
    1  0.004  0.000  0.000  0.000  0.009  0.003  0.008  0.008  0.003  0.034
    2  0.022  0.000  0.003  0.000  0.019  0.081  0.247  0.243  0.006  0.622
    3  0.011  0.005  0.030  0.014  0.001  0.000  0.000  0.000  0.000  0.061
    4  0.011  0.005  0.030  0.014  0.001  0.000  0.000  0.000  0.000  0.061
tot    0.048  0.010  0.063  0.030  0.029  0.084  0.256  0.251  0.010  0.779
 
band    16 # energy    4.50008954 # occ.  1.00000000
 
ion      s     py     pz     px    dxy    dyz    dz2    dxz  x2-y2    tot
    1  0.000  0.001  0.000  0.000  0.028  0.078  0.000  0.026  0.085  0.217
    2  0.000  0.009  0.000  0.003  0.006  0.019  0.000  0.006  0.017  0.060
    3  0.000  0.128  0.000  0.043  0.000  0.001  0.000  0.000  0.001  0.172
    4  0.000  0.128  0.000  0.043  0.000  0.001  0.000  0.000  0.001  0.172
tot    0.000  0.266  0.000  0.089  0.034  0.098  0.000  0.033  0.103  0.622
 
band    17 # energy    4.73207035 # occ.  1.00000000
 
ion      s     py     pz     px    dxy    dyz    dz2    dxz  x2-y2    tot
    1  0.000  0.000  0.007  0.000  0.038  0.010  0.002  0.029  0.013  0.098
    2  0.006  0.004  0.001  0.011  0.020  0.002  0.180  0.005  0.007  0.234
    3  0.002  0.029  0.041  0.087  0.000  0.000  0.000  0.000  0.000  0.160
    4  0.002  0.029  0.041  0.087  0.000  0.000  0.000  0.000  0.000  0.160
tot    0.010  0.061  0.090  0.184  0.058  0.011  0.182  0.034  0.019  0.651
 
band    18 # energy    5.30973644 # occ.  1.00000000
 
ion      s     py     pz     px    dxy    dyz    dz2    dxz  x2-y2    tot
    1  0.019  0.002  0.000  0.007  0.017  0.003  0.030  0.010  0.006  0.095
    2  0.002  0.000  0.010  0.001  0.110  0.030  0.003  0.089  0.037  0.282
    3  0.015  0.030  0.002  0.090  0.001  0.000  0.001  0.001  0.000  0.140
    4  0.015  0.030  0.002  0.090  0.001  0.000  0.001  0.001  0.000  0.140
tot    0.052  0.063  0.014  0.188  0.128  0.034  0.035  0.101  0.043  0.656
 
band    19 # energy    5.99066411 # occ.  1.00000000
 
ion      s     py     pz     px    dxy    dyz    dz2    dxz  x2-y2    tot
    1  0.000  0.011  0.000  0.004  0.012  0.039  0.000  0.013  0.037  0.116
    2  0.000  0.003  0.000  0.001  0.027  0.072  0.000  0.024  0.081  0.208
    3  0.000  0.125  0.000  0.042  0.000  0.001  0.000  0.000  0.001  0.170
    4  0.000  0.125  0.000  0.042  0.000  0.001  0.000  0.000  0.001  0.170
tot    0.000  0.264  0.000  0.088  0.040  0.113  0.000  0.038  0.120  0.663
 
band    20 # energy    6.91836805 # occ.  0.00000000
 
ion      s     py     pz     px    dxy    dyz    dz2    dxz  x2-y2    tot
    1  0.011  0.000  0.000  0.000  0.171  0.071  0.197  0.213  0.057  0.720
    2  0.003  0.001  0.004  0.002  0.001  0.000  0.000  0.001  0.000  0.013
    3  0.006  0.000  0.003  0.000  0.003  0.000  0.002  0.000  0.001  0.017
    4  0.006  0.000  0.003  0.000  0.003  0.000  0.002  0.000  0.001  0.017
tot    0.026  0.001  0.011  0.003  0.178  0.072  0.201  0.215  0.059  0.767
 
band    21 # energy    7.29706906 # occ.  0.00000000
 
ion      s     py     pz     px    dxy    dyz    dz2    dxz  x2-y2    tot
    1  0.000  0.002  0.000  0.001  0.081  0.297  0.000  0.099  0.242  0.722
    2  0.000  0.000  0.000  0.000  0.004  0.010  0.000  0.003  0.012  0.030
    3  0.000  0.028  0.000  0.009  0.001  0.000  0.000  0.000  0.002  0.041
    4  0.000  0.028  0.000  0.009  0.001  0.000  0.000  0.000  0.002  0.041
tot    0.000  0.060  0.000  0.020  0.086  0.308  0.000  0.103  0.258  0.833
 
band    22 # energy    7.43847758 # occ.  0.00000000
 
ion      s     py     pz     px    dxy    dyz    dz2    dxz  x2-y2    tot
    1  0.003  0.001  0.001  0.003  0.149  0.009  0.454  0.027  0.050  0.696
    2  0.003  0.000  0.000  0.001  0.005  0.002  0.001  0.005  0.002  0.018
    3  0.002  0.010  0.012  0.030  0.000  0.000  0.001  0.000  0.000  0.056
    4  0.002  0.010  0.012  0.030  0.000  0.000  0.001  0.000  0.000  0.056
tot    0.011  0.021  0.025  0.063  0.154  0.011  0.457  0.033  0.051  0.826
 
band    23 # energy    7.56889684 # occ.  0.00000000
 
ion      s     py     pz     px    dxy    dyz    dz2    dxz  x2-y2    tot
    1  0.001  0.000  0.004  0.000  0.151  0.108  0.024  0.324  0.050  0.663
    2  0.032  0.003  0.000  0.008  0.003  0.000  0.006  0.001  0.001  0.053
    3  0.016  0.006  0.006  0.017  0.000  0.001  0.000  0.004  0.000  0.050
    4  0.016  0.006  0.006  0.017  0.000  0.001  0.000  0.004  0.000  0.050
tot    0.066  0.014  0.015  0.042  0.155  0.111  0.031  0.332  0.052  0.816
 
band    24 # energy    8.04948761 # occ.  0.00000000
 
ion      s     py     pz     px    dxy    dyz    dz2    dxz  x2-y2    tot
    1  0.000  0.001  0.000  0.000  0.085  0.230  0.000  0.077  0.254  0.648
    2  0.000  0.015  0.000  0.005  0.001  0.003  0.000  0.001  0.002  0.027
    3  0.000  0.053  0.000  0.018  0.000  0.004  0.000  0.001  0.001  0.076
    4  0.000  0.053  0.000  0.018  0.000  0.004  0.000  0.001  0.001  0.076
tot    0.000  0.121  0.000  0.040  0.086  0.241  0.000  0.080  0.258  0.827
 

 k-point    16 :   -0.10526316 0.00000000 0.50000000     weight = 0.02500000

band     1 # energy  -44.23133709 # occ.  1.00000000
 
ion      s     py     pz     px    dxy    dyz    dz2    dxz  x2-y2    tot
    1  0.000  0.000  0.000  0.000  0.000  0.000  0.000  0.000  0.000  0.000
    2  0.000  0.228  0.000  0.767  0.000  0.000  0.000  0.000  0.000  0.995
    3  0.000  0.000  0.000  0.000  0.000  0.000  0.000  0.000  0.000  0.000
    4  0.000  0.000  0.000  0.000  0.000  0.000  0.000  0.000  0.000  0.000
tot    0.000  0.228  0.000  0.767  0.000  0.000  0.000  0.000  0.000  0.995
 
band     2 # energy  -44.23126564 # occ.  1.00000000
 
ion      s     py     pz     px    dxy    dyz    dz2    dxz  x2-y2    tot
    1  0.000  0.000  0.000  0.000  0.000  0.000  0.000  0.000  0.000  0.000
    2  0.000  0.767  0.000  0.228  0.000  0.000  0.000  0.000  0.000  0.995
    3  0.000  0.000  0.000  0.000  0.000  0.000  0.000  0.000  0.000  0.000
    4  0.000  0.000  0.000  0.000  0.000  0.000  0.000  0.000  0.000  0.000
tot    0.000  0.767  0.000  0.228  0.000  0.000  0.000  0.000  0.000  0.995
 
band     3 # energy  -44.22827843 # occ.  1.00000000
 
ion      s     py     pz     px    dxy    dyz    dz2    dxz  x2-y2    tot
    1  0.000  0.000  0.000  0.000  0.000  0.000  0.000  0.000  0.000  0.000
    2  0.000  0.000  0.995  0.000  0.000  0.000  0.000  0.000  0.000  0.995
    3  0.000  0.000  0.000  0.000  0.000  0.000  0.000  0.000  0.000  0.000
    4  0.000  0.000  0.000  0.000  0.000  0.000  0.000  0.000  0.000  0.000
tot    0.000  0.000  0.995  0.000  0.000  0.000  0.000  0.000  0.000  0.995
 
band     4 # energy  -39.85059620 # occ.  1.00000000
 
ion      s     py     pz     px    dxy    dyz    dz2    dxz  x2-y2    tot
    1  0.000  0.000  0.995  0.000  0.000  0.000  0.000  0.000  0.000  0.995
    2  0.000  0.000  0.000  0.000  0.000  0.000  0.000  0.000  0.000  0.000
    3  0.000  0.000  0.000  0.000  0.000  0.000  0.000  0.000  0.000  0.000
    4  0.000  0.000  0.000  0.000  0.000  0.000  0.000  0.000  0.000  0.000
tot    0.000  0.000  0.995  0.000  0.000  0.000  0.000  0.000  0.000  0.995
 
band     5 # energy  -39.84373170 # occ.  1.00000000
 
ion      s     py     pz     px    dxy    dyz    dz2    dxz  x2-y2    tot
    1  0.000  0.228  0.000  0.768  0.000  0.000  0.000  0.000  0.000  0.996
    2  0.000  0.000  0.000  0.000  0.000  0.000  0.000  0.000  0.000  0.000
    3  0.000  0.000  0.000  0.000  0.000  0.000  0.000  0.000  0.000  0.000
    4  0.000  0.000  0.000  0.000  0.000  0.000  0.000  0.000  0.000  0.000
tot    0.000  0.228  0.000  0.768  0.000  0.000  0.000  0.000  0.000  0.996
 
band     6 # energy  -39.84362520 # occ.  1.00000000
 
ion      s     py     pz     px    dxy    dyz    dz2    dxz  x2-y2    tot
    1  0.000  0.768  0.000  0.228  0.000  0.000  0.000  0.000  0.000  0.996
    2  0.000  0.000  0.000  0.000  0.000  0.000  0.000  0.000  0.000  0.000
    3  0.000  0.000  0.000  0.000  0.000  0.000  0.000  0.000  0.000  0.000
    4  0.000  0.000  0.000  0.000  0.000  0.000  0.000  0.000  0.000  0.000
tot    0.000  0.768  0.000  0.228  0.000  0.000  0.000  0.000  0.000  0.996
 
band     7 # energy   -5.42157284 # occ.  1.00000000
 
ion      s     py     pz     px    dxy    dyz    dz2    dxz  x2-y2    tot
    1  0.000  0.000  0.004  0.000  0.000  0.000  0.000  0.000  0.000  0.005
    2  0.028  0.000  0.000  0.000  0.000  0.000  0.000  0.000  0.000  0.029
    3  0.291  0.000  0.001  0.000  0.000  0.000  0.000  0.000  0.000  0.292
    4  0.291  0.000  0.001  0.000  0.000  0.000  0.000  0.000  0.000  0.292
tot    0.610  0.000  0.007  0.001  0.000  0.000  0.000  0.000  0.000  0.619
 
band     8 # energy   -5.37954285 # occ.  1.00000000
 
ion      s     py     pz     px    dxy    dyz    dz2    dxz  x2-y2    tot
    1  0.022  0.000  0.000  0.000  0.000  0.000  0.000  0.000  0.000  0.023
    2  0.000  0.000  0.006  0.000  0.000  0.000  0.000  0.001  0.000  0.006
    3  0.295  0.000  0.001  0.000  0.000  0.000  0.000  0.000  0.000  0.296
    4  0.295  0.000  0.001  0.000  0.000  0.000  0.000  0.000  0.000  0.296
tot    0.612  0.000  0.008  0.001  0.000  0.000  0.000  0.001  0.000  0.622
 
band     9 # energy    2.17665522 # occ.  1.00000000
 
ion      s     py     pz     px    dxy    dyz    dz2    dxz  x2-y2    tot
    1  0.000  0.000  0.006  0.000  0.004  0.001  0.000  0.003  0.001  0.015
    2  0.055  0.000  0.000  0.000  0.000  0.000  0.256  0.001  0.000  0.313
    3  0.020  0.001  0.096  0.003  0.000  0.000  0.001  0.000  0.000  0.121
    4  0.020  0.001  0.096  0.003  0.000  0.000  0.001  0.000  0.000  0.121
tot    0.096  0.002  0.199  0.005  0.004  0.001  0.257  0.004  0.001  0.569
 
band    10 # energy    2.32117622 # occ.  1.00000000
 
ion      s     py     pz     px    dxy    dyz    dz2    dxz  x2-y2    tot
    1  0.033  0.000  0.000  0.000  0.000  0.000  0.007  0.000  0.000  0.040
    2  0.000  0.000  0.001  0.000  0.184  0.035  0.000  0.104  0.061  0.385
    3  0.012  0.009  0.062  0.026  0.000  0.000  0.000  0.000  0.000  0.109
    4  0.012  0.009  0.062  0.026  0.000  0.000  0.000  0.000  0.000  0.109
tot    0.057  0.017  0.125  0.052  0.184  0.035  0.007  0.104  0.061  0.643
 
band    11 # energy    2.72510945 # occ.  1.00000000
 
ion      s     py     pz     px    dxy    dyz    dz2    dxz  x2-y2    tot
    1  0.000  0.001  0.000  0.000  0.000  0.000  0.000  0.000  0.000  0.002
    2  0.000  0.000  0.000  0.000  0.107  0.203  0.000  0.068  0.322  0.700
    3  0.000  0.038  0.000  0.013  0.000  0.001  0.000  0.000  0.000  0.053
    4  0.000  0.038  0.000  0.013  0.000  0.001  0.000  0.000  0.000  0.053
tot    0.000  0.078  0.000  0.026  0.108  0.205  0.000  0.068  0.323  0.807
 
band    12 # energy    3.18801801 # occ.  1.00000000
 
ion      s     py     pz     px    dxy    dyz    dz2    dxz  x2-y2    tot
    1  0.019  0.000  0.000  0.001  0.001  0.000  0.019  0.001  0.000  0.042
    2  0.001  0.000  0.008  0.000  0.332  0.011  0.012  0.032  0.111  0.506
    3  0.007  0.004  0.054  0.011  0.000  0.000  0.001  0.001  0.000  0.078
    4  0.007  0.004  0.054  0.011  0.000  0.000  0.001  0.001  0.000  0.078
tot    0.033  0.008  0.116  0.023  0.333  0.011  0.033  0.034  0.111  0.703
 
band    13 # energy    3.22814749 # occ.  1.00000000
 
ion      s     py     pz     px    dxy    dyz    dz2    dxz  x2-y2    tot
    1  0.008  0.001  0.001  0.002  0.005  0.001  0.012  0.002  0.002  0.034
    2  0.005  0.000  0.005  0.000  0.009  0.116  0.076  0.348  0.003  0.564
    3  0.007  0.007  0.034  0.022  0.001  0.000  0.000  0.000  0.000  0.072
    4  0.007  0.007  0.034  0.022  0.001  0.000  0.000  0.000  0.000  0.072
tot    0.028  0.015  0.073  0.046  0.016  0.117  0.089  0.351  0.005  0.741
 
band    14 # energy    3.27409729 # occ.  1.00000000
 
ion      s     py     pz     px    dxy    dyz    dz2    dxz  x2-y2    tot
    1  0.000  0.000  0.000  0.000  0.000  0.001  0.000  0.000  0.001  0.003
    2  0.000  0.000  0.000  0.000  0.085  0.395  0.000  0.132  0.254  0.865
    3  0.000  0.005  0.000  0.002  0.000  0.000  0.000  0.000  0.001  0.008
    4  0.000  0.005  0.000  0.002  0.000  0.000  0.000  0.000  0.001  0.008
tot    0.000  0.011  0.000  0.004  0.086  0.396  0.000  0.132  0.257  0.885
 
band    15 # energy    3.50861499 # occ.  1.00000000
 
ion      s     py     pz     px    dxy    dyz    dz2    dxz  x2-y2    tot
    1  0.000  0.000  0.001  0.000  0.014  0.004  0.001  0.011  0.005  0.035
    2  0.035  0.000  0.000  0.001  0.028  0.037  0.389  0.111  0.009  0.611
    3  0.014  0.007  0.023  0.021  0.000  0.000  0.001  0.000  0.000  0.066
    4  0.014  0.007  0.023  0.021  0.000  0.000  0.001  0.000  0.000  0.066
tot    0.064  0.014  0.046  0.043  0.043  0.041  0.391  0.122  0.014  0.778
 
band    16 # energy    4.50676357 # occ.  1.00000000
 
ion      s     py     pz     px    dxy    dyz    dz2    dxz  x2-y2    tot
    1  0.000  0.000  0.000  0.000  0.031  0.075  0.000  0.025  0.093  0.225
    2  0.000  0.009  0.000  0.003  0.004  0.014  0.000  0.005  0.011  0.044
    3  0.000  0.130  0.000  0.043  0.000  0.001  0.000  0.000  0.000  0.175
    4  0.000  0.130  0.000  0.043  0.000  0.001  0.000  0.000  0.000  0.175
tot    0.000  0.269  0.000  0.090  0.035  0.090  0.000  0.030  0.105  0.618
 
band    17 # energy    4.69299083 # occ.  1.00000000
 
ion      s     py     pz     px    dxy    dyz    dz2    dxz  x2-y2    tot
    1  0.000  0.000  0.006  0.000  0.057  0.012  0.000  0.036  0.019  0.130
    2  0.007  0.003  0.000  0.009  0.009  0.002  0.151  0.007  0.003  0.192
    3  0.002  0.032  0.033  0.095  0.000  0.000  0.000  0.001  0.000  0.162
    4  0.002  0.032  0.033  0.095  0.000  0.000  0.000  0.001  0.000  0.162
tot    0.010  0.066  0.071  0.199  0.066  0.015  0.152  0.044  0.022  0.646
 
band    18 # energy    5.57431052 # occ.  1.00000000
 
ion      s     py     pz     px    dxy    dyz    dz2    dxz  x2-y2    tot
    1  0.017  0.003  0.000  0.008  0.013  0.004  0.039  0.013  0.004  0.101
    2  0.001  0.000  0.010  0.001  0.106  0.025  0.000  0.074  0.035  0.253
    3  0.014  0.033  0.001  0.100  0.001  0.000  0.001  0.001  0.000  0.151
    4  0.014  0.033  0.001  0.100  0.001  0.000  0.001  0.001  0.000  0.151
tot    0.045  0.070  0.011  0.210  0.120  0.030  0.042  0.089  0.040  0.656
 
band    19 # energy    6.09874099 # occ.  1.00000000
 
ion      s     py     pz     px    dxy    dyz    dz2    dxz  x2-y2    tot
    1  0.000  0.010  0.000  0.003  0.011  0.040  0.000  0.013  0.033  0.110
    2  0.000  0.003  0.000  0.001  0.028  0.066  0.000  0.022  0.085  0.205
    3  0.000  0.130  0.000  0.043  0.000  0.001  0.000  0.000  0.001  0.177
    4  0.000  0.130  0.000  0.043  0.000  0.001  0.000  0.000  0.001  0.177
tot    0.000  0.274  0.000  0.091  0.040  0.108  0.000  0.036  0.120  0.669
 
band    20 # energy    6.94219940 # occ.  0.00000000
 
ion      s     py     pz     px    dxy    dyz    dz2    dxz  x2-y2    tot
    1  0.011  0.000  0.000  0.000  0.157  0.076  0.209  0.228  0.052  0.733
    2  0.001  0.001  0.004  0.002  0.000  0.000  0.000  0.001  0.000  0.010
    3  0.006  0.000  0.003  0.000  0.003  0.000  0.002  0.000  0.001  0.016
    4  0.006  0.000  0.003  0.000  0.003  0.000  0.002  0.000  0.001  0.016
tot    0.025  0.001  0.010  0.003  0.163  0.076  0.213  0.229  0.054  0.775
 
band    21 # energy    7.22781405 # occ.  0.00000000
 
ion      s     py     pz     px    dxy    dyz    dz2    dxz  x2-y2    tot
    1  0.000  0.002  0.000  0.001  0.075  0.311  0.000  0.104  0.225  0.718
    2  0.000  0.000  0.000  0.000  0.004  0.009  0.000  0.003  0.012  0.029
    3  0.000  0.027  0.000  0.009  0.001  0.000  0.000  0.000  0.002  0.039
    4  0.000  0.027  0.000  0.009  0.001  0.000  0.000  0.000  0.002  0.039
tot    0.000  0.056  0.000  0.019  0.081  0.321  0.000  0.107  0.242  0.825
 
band    22 # energy    7.36683892 # occ.  0.00000000
 
ion      s     py     pz     px    dxy    dyz    dz2    dxz  x2-y2    tot
    1  0.005  0.001  0.000  0.003  0.084  0.030  0.441  0.089  0.028  0.681
    2  0.000  0.000  0.001  0.000  0.008  0.002  0.000  0.005  0.003  0.019
    3  0.002  0.011  0.010  0.033  0.001  0.000  0.002  0.000  0.000  0.059
    4  0.002  0.011  0.010  0.033  0.001  0.000  0.002  0.000  0.000  0.059
tot    0.010  0.023  0.021  0.069  0.093  0.031  0.445  0.094  0.031  0.817
 
band    23 # energy    7.70827895 # occ.  0.00000000
 
ion      s     py     pz     px    dxy    dyz    dz2    dxz  x2-y2    tot
    1  0.000  0.000  0.005  0.000  0.229  0.080  0.000  0.239  0.076  0.630
    2  0.029  0.003  0.000  0.010  0.001  0.000  0.008  0.001  0.000  0.053
    3  0.015  0.009  0.006  0.026  0.000  0.001  0.001  0.004  0.000  0.062
    4  0.015  0.009  0.006  0.026  0.000  0.001  0.001  0.004  0.000  0.062
tot    0.059  0.021  0.017  0.062  0.231  0.083  0.009  0.249  0.077  0.807
 
band    24 # energy    8.09756702 # occ.  0.00000000
 
ion      s     py     pz     px    dxy    dyz    dz2    dxz  x2-y2    tot
    1  0.000  0.001  0.000  0.000  0.088  0.216  0.000  0.072  0.264  0.642
    2  0.000  0.015  0.000  0.005  0.000  0.002  0.000  0.001  0.001  0.025
    3  0.000  0.057  0.000  0.019  0.000  0.004  0.000  0.001  0.000  0.081
    4  0.000  0.057  0.000  0.019  0.000  0.004  0.000  0.001  0.000  0.081
tot    0.000  0.129  0.000  0.043  0.089  0.226  0.000  0.075  0.267  0.829
 

 k-point    17 :   -0.07894737 0.00000000 0.50000000     weight = 0.02500000

band     1 # energy  -44.23129057 # occ.  1.00000000
 
ion      s     py     pz     px    dxy    dyz    dz2    dxz  x2-y2    tot
    1  0.000  0.000  0.000  0.000  0.000  0.000  0.000  0.000  0.000  0.000
    2  0.000  0.201  0.000  0.794  0.000  0.000  0.000  0.000  0.000  0.995
    3  0.000  0.000  0.000  0.000  0.000  0.000  0.000  0.000  0.000  0.000
    4  0.000  0.000  0.000  0.000  0.000  0.000  0.000  0.000  0.000  0.000
tot    0.000  0.201  0.000  0.794  0.000  0.000  0.000  0.000  0.000  0.995
 
band     2 # energy  -44.23126025 # occ.  1.00000000
 
ion      s     py     pz     px    dxy    dyz    dz2    dxz  x2-y2    tot
    1  0.000  0.000  0.000  0.000  0.000  0.000  0.000  0.000  0.000  0.000
    2  0.000  0.794  0.000  0.201  0.000  0.000  0.000  0.000  0.000  0.995
    3  0.000  0.000  0.000  0.000  0.000  0.000  0.000  0.000  0.000  0.000
    4  0.000  0.000  0.000  0.000  0.000  0.000  0.000  0.000  0.000  0.000
tot    0.000  0.794  0.000  0.201  0.000  0.000  0.000  0.000  0.000  0.995
 
band     3 # energy  -44.22828611 # occ.  1.00000000
 
ion      s     py     pz     px    dxy    dyz    dz2    dxz  x2-y2    tot
    1  0.000  0.000  0.000  0.000  0.000  0.000  0.000  0.000  0.000  0.000
    2  0.000  0.000  0.995  0.000  0.000  0.000  0.000  0.000  0.000  0.995
    3  0.000  0.000  0.000  0.000  0.000  0.000  0.000  0.000  0.000  0.000
    4  0.000  0.000  0.000  0.000  0.000  0.000  0.000  0.000  0.000  0.000
tot    0.000  0.000  0.995  0.000  0.000  0.000  0.000  0.000  0.000  0.995
 
band     4 # energy  -39.85060834 # occ.  1.00000000
 
ion      s     py     pz     px    dxy    dyz    dz2    dxz  x2-y2    tot
    1  0.000  0.000  0.995  0.000  0.000  0.000  0.000  0.000  0.000  0.995
    2  0.000  0.000  0.000  0.000  0.000  0.000  0.000  0.000  0.000  0.000
    3  0.000  0.000  0.000  0.000  0.000  0.000  0.000  0.000  0.000  0.000
    4  0.000  0.000  0.000  0.000  0.000  0.000  0.000  0.000  0.000  0.000
tot    0.000  0.000  0.995  0.000  0.000  0.000  0.000  0.000  0.000  0.995
 
band     5 # energy  -39.84366362 # occ.  1.00000000
 
ion      s     py     pz     px    dxy    dyz    dz2    dxz  x2-y2    tot
    1  0.000  0.203  0.000  0.793  0.000  0.000  0.000  0.000  0.000  0.996
    2  0.000  0.000  0.000  0.000  0.000  0.000  0.000  0.000  0.000  0.000
    3  0.000  0.000  0.000  0.000  0.000  0.000  0.000  0.000  0.000  0.000
    4  0.000  0.000  0.000  0.000  0.000  0.000  0.000  0.000  0.000  0.000
tot    0.000  0.203  0.000  0.793  0.000  0.000  0.000  0.000  0.000  0.996
 
band     6 # energy  -39.84361574 # occ.  1.00000000
 
ion      s     py     pz     px    dxy    dyz    dz2    dxz  x2-y2    tot
    1  0.000  0.793  0.000  0.203  0.000  0.000  0.000  0.000  0.000  0.996
    2  0.000  0.000  0.000  0.000  0.000  0.000  0.000  0.000  0.000  0.000
    3  0.000  0.000  0.000  0.000  0.000  0.000  0.000  0.000  0.000  0.000
    4  0.000  0.000  0.000  0.000  0.000  0.000  0.000  0.000  0.000  0.000
tot    0.000  0.793  0.000  0.203  0.000  0.000  0.000  0.000  0.000  0.996
 
band     7 # energy   -5.45213746 # occ.  1.00000000
 
ion      s     py     pz     px    dxy    dyz    dz2    dxz  x2-y2    tot
    1  0.000  0.000  0.005  0.000  0.000  0.000  0.000  0.000  0.000  0.005
    2  0.029  0.000  0.000  0.000  0.000  0.000  0.000  0.000  0.000  0.029
    3  0.290  0.000  0.001  0.000  0.000  0.000  0.000  0.000  0.000  0.291
    4  0.290  0.000  0.001  0.000  0.000  0.000  0.000  0.000  0.000  0.291
tot    0.609  0.000  0.007  0.000  0.000  0.000  0.000  0.000  0.000  0.617
 
band     8 # energy   -5.40844252 # occ.  1.00000000
 
ion      s     py     pz     px    dxy    dyz    dz2    dxz  x2-y2    tot
    1  0.023  0.000  0.000  0.000  0.000  0.000  0.000  0.000  0.000  0.023
    2  0.000  0.000  0.006  0.000  0.000  0.000  0.000  0.000  0.000  0.006
    3  0.294  0.000  0.001  0.000  0.000  0.000  0.000  0.000  0.000  0.295
    4  0.294  0.000  0.001  0.000  0.000  0.000  0.000  0.000  0.000  0.295
tot    0.611  0.000  0.008  0.000  0.000  0.000  0.000  0.000  0.000  0.620
 
band     9 # energy    2.16803872 # occ.  1.00000000
 
ion      s     py     pz     px    dxy    dyz    dz2    dxz  x2-y2    tot
    1  0.000  0.000  0.007  0.000  0.002  0.001  0.000  0.002  0.001  0.012
    2  0.053  0.000  0.000  0.000  0.000  0.000  0.273  0.000  0.000  0.327
    3  0.019  0.000  0.096  0.001  0.000  0.000  0.001  0.000  0.000  0.117
    4  0.019  0.000  0.096  0.001  0.000  0.000  0.001  0.000  0.000  0.117
tot    0.092  0.001  0.198  0.003  0.002  0.001  0.275  0.002  0.001  0.574
 
band    10 # energy    2.42253083 # occ.  1.00000000
 
ion      s     py     pz     px    dxy    dyz    dz2    dxz  x2-y2    tot
    1  0.031  0.000  0.000  0.000  0.000  0.000  0.008  0.000  0.000  0.040
    2  0.000  0.000  0.002  0.000  0.190  0.035  0.000  0.106  0.063  0.397
    3  0.012  0.008  0.062  0.024  0.000  0.000  0.000  0.000  0.000  0.107
    4  0.012  0.008  0.062  0.024  0.000  0.000  0.000  0.000  0.000  0.107
tot    0.054  0.016  0.127  0.049  0.190  0.036  0.009  0.107  0.063  0.651
 
band    11 # energy    2.72078379 # occ.  1.00000000
 
ion      s     py     pz     px    dxy    dyz    dz2    dxz  x2-y2    tot
    1  0.000  0.001  0.000  0.000  0.000  0.000  0.000  0.000  0.000  0.002
    2  0.000  0.000  0.000  0.000  0.113  0.189  0.000  0.063  0.338  0.702
    3  0.000  0.038  0.000  0.013  0.000  0.001  0.000  0.000  0.000  0.052
    4  0.000  0.038  0.000  0.013  0.000  0.001  0.000  0.000  0.000  0.052
tot    0.000  0.076  0.000  0.025  0.113  0.191  0.000  0.064  0.338  0.807
 
band    12 # energy    3.08524520 # occ.  1.00000000
 
ion      s     py     pz     px    dxy    dyz    dz2    dxz  x2-y2    tot
    1  0.030  0.000  0.000  0.001  0.000  0.000  0.029  0.000  0.000  0.060
    2  0.000  0.000  0.011  0.000  0.199  0.009  0.000  0.028  0.066  0.313
    3  0.012  0.005  0.086  0.015  0.000  0.000  0.001  0.001  0.000  0.119
    4  0.012  0.005  0.086  0.015  0.000  0.000  0.001  0.001  0.000  0.119
tot    0.054  0.010  0.183  0.031  0.199  0.010  0.030  0.029  0.066  0.612
 
band    13 # energy    3.26847101 # occ.  1.00000000
 
ion      s     py     pz     px    dxy    dyz    dz2    dxz  x2-y2    tot
    1  0.000  0.000  0.000  0.001  0.002  0.000  0.001  0.001  0.001  0.006
    2  0.001  0.000  0.000  0.000  0.167  0.148  0.021  0.443  0.056  0.835
    3  0.001  0.002  0.002  0.007  0.001  0.000  0.000  0.000  0.000  0.015
    4  0.001  0.002  0.002  0.007  0.001  0.000  0.000  0.000  0.000  0.015
tot    0.004  0.005  0.005  0.015  0.171  0.148  0.022  0.444  0.057  0.871
 
band    14 # energy    3.28646444 # occ.  1.00000000
 
ion      s     py     pz     px    dxy    dyz    dz2    dxz  x2-y2    tot
    1  0.000  0.000  0.000  0.000  0.000  0.001  0.000  0.000  0.001  0.002
    2  0.000  0.000  0.000  0.000  0.080  0.418  0.000  0.139  0.240  0.878
    3  0.000  0.003  0.000  0.001  0.000  0.000  0.000  0.000  0.001  0.006
    4  0.000  0.003  0.000  0.001  0.000  0.000  0.000  0.000  0.001  0.006
tot    0.000  0.007  0.000  0.002  0.081  0.419  0.000  0.140  0.243  0.891
 
band    15 # energy    3.59754752 # occ.  1.00000000
 
ion      s     py     pz     px    dxy    dyz    dz2    dxz  x2-y2    tot
    1  0.000  0.000  0.000  0.000  0.015  0.004  0.000  0.011  0.005  0.035
    2  0.044  0.000  0.000  0.001  0.010  0.010  0.474  0.029  0.003  0.571
    3  0.017  0.007  0.030  0.022  0.000  0.000  0.001  0.000  0.000  0.078
    4  0.017  0.007  0.030  0.022  0.000  0.000  0.001  0.000  0.000  0.078
tot    0.079  0.015  0.060  0.045  0.026  0.013  0.476  0.040  0.009  0.761
 
band    16 # energy    4.50993798 # occ.  1.00000000
 
ion      s     py     pz     px    dxy    dyz    dz2    dxz  x2-y2    tot
    1  0.000  0.000  0.000  0.000  0.033  0.073  0.000  0.024  0.100  0.232
    2  0.000  0.008  0.000  0.003  0.002  0.008  0.000  0.003  0.006  0.030
    3  0.000  0.131  0.000  0.044  0.000  0.001  0.000  0.000  0.000  0.176
    4  0.000  0.131  0.000  0.044  0.000  0.001  0.000  0.000  0.000  0.176
tot    0.000  0.271  0.000  0.090  0.036  0.083  0.000  0.028  0.107  0.615
 
band    17 # energy    4.63689593 # occ.  1.00000000
 
ion      s     py     pz     px    dxy    dyz    dz2    dxz  x2-y2    tot
    1  0.000  0.000  0.004  0.000  0.074  0.015  0.000  0.046  0.025  0.164
    2  0.006  0.003  0.000  0.008  0.005  0.002  0.113  0.005  0.002  0.144
    3  0.002  0.035  0.023  0.105  0.000  0.000  0.000  0.001  0.000  0.165
    4  0.002  0.035  0.023  0.105  0.000  0.000  0.000  0.001  0.000  0.165
tot    0.009  0.073  0.050  0.218  0.079  0.018  0.113  0.053  0.026  0.639
 
band    18 # energy    5.84348561 # occ.  1.00000000
 
ion      s     py     pz     px    dxy    dyz    dz2    dxz  x2-y2    tot
    1  0.014  0.003  0.000  0.008  0.011  0.005  0.045  0.014  0.004  0.104
    2  0.000  0.000  0.008  0.001  0.100  0.022  0.000  0.065  0.033  0.230
    3  0.011  0.037  0.000  0.112  0.000  0.000  0.001  0.001  0.000  0.163
    4  0.011  0.037  0.000  0.112  0.000  0.000  0.001  0.001  0.000  0.163
tot    0.036  0.078  0.009  0.233  0.112  0.027  0.048  0.081  0.037  0.660
 
band    19 # energy    6.20505214 # occ.  1.00000000
 
ion      s     py     pz     px    dxy    dyz    dz2    dxz  x2-y2    tot
    1  0.000  0.010  0.000  0.003  0.009  0.036  0.000  0.012  0.026  0.096
    2  0.000  0.002  0.000  0.001  0.030  0.063  0.000  0.021  0.090  0.206
    3  0.000  0.138  0.000  0.046  0.000  0.001  0.000  0.000  0.001  0.186
    4  0.000  0.138  0.000  0.046  0.000  0.001  0.000  0.000  0.001  0.186
tot    0.000  0.288  0.000  0.096  0.039  0.100  0.000  0.033  0.117  0.674
 
band    20 # energy    6.96003682 # occ.  0.00000000
 
ion      s     py     pz     px    dxy    dyz    dz2    dxz  x2-y2    tot
    1  0.011  0.000  0.000  0.000  0.146  0.077  0.225  0.231  0.049  0.739
    2  0.001  0.001  0.004  0.002  0.000  0.000  0.000  0.000  0.000  0.008
    3  0.006  0.000  0.003  0.000  0.003  0.000  0.002  0.000  0.001  0.016
    4  0.006  0.000  0.003  0.000  0.003  0.000  0.002  0.000  0.001  0.016
tot    0.024  0.001  0.010  0.003  0.152  0.077  0.229  0.232  0.051  0.780
 
band    21 # energy    7.15397094 # occ.  0.00000000
 
ion      s     py     pz     px    dxy    dyz    dz2    dxz  x2-y2    tot
    1  0.000  0.002  0.000  0.001  0.072  0.326  0.000  0.109  0.216  0.725
    2  0.000  0.001  0.000  0.000  0.004  0.007  0.000  0.002  0.011  0.025
    3  0.000  0.022  0.000  0.007  0.001  0.000  0.000  0.000  0.003  0.034
    4  0.000  0.022  0.000  0.007  0.001  0.000  0.000  0.000  0.003  0.034
tot    0.000  0.047  0.000  0.016  0.078  0.334  0.000  0.111  0.233  0.818
 
band    22 # energy    7.26734111 # occ.  0.00000000
 
ion      s     py     pz     px    dxy    dyz    dz2    dxz  x2-y2    tot
    1  0.008  0.001  0.000  0.003  0.076  0.037  0.400  0.111  0.025  0.660
    2  0.000  0.000  0.001  0.000  0.011  0.002  0.000  0.006  0.004  0.024
    3  0.003  0.011  0.008  0.033  0.001  0.000  0.002  0.000  0.000  0.059
    4  0.003  0.011  0.008  0.033  0.001  0.000  0.002  0.000  0.000  0.059
tot    0.015  0.023  0.018  0.070  0.088  0.039  0.404  0.117  0.029  0.803
 
band    23 # energy    7.86973024 # occ.  0.00000000
 
ion      s     py     pz     px    dxy    dyz    dz2    dxz  x2-y2    tot
    1  0.000  0.000  0.005  0.000  0.250  0.070  0.000  0.209  0.083  0.616
    2  0.021  0.004  0.000  0.012  0.001  0.000  0.007  0.001  0.000  0.046
    3  0.012  0.012  0.006  0.037  0.000  0.001  0.001  0.004  0.000  0.072
    4  0.012  0.012  0.006  0.037  0.000  0.001  0.001  0.004  0.000  0.072
tot    0.045  0.028  0.016  0.085  0.251  0.073  0.008  0.218  0.084  0.807
 
band    24 # energy    8.13921726 # occ.  0.00000000
 
ion      s     py     pz     px    dxy    dyz    dz2    dxz  x2-y2    tot
    1  0.000  0.001  0.000  0.000  0.090  0.206  0.000  0.069  0.271  0.637
    2  0.000  0.015  0.000  0.005  0.000  0.002  0.000  0.001  0.001  0.023
    3  0.000  0.060  0.000  0.020  0.000  0.004  0.000  0.001  0.000  0.086
    4  0.000  0.060  0.000  0.020  0.000  0.004  0.000  0.001  0.000  0.086
tot    0.000  0.136  0.000  0.045  0.091  0.215  0.000  0.072  0.272  0.831
 

 k-point    18 :   -0.05263158 0.00000000 0.50000000     weight = 0.02500000

band     1 # energy  -44.23127049 # occ.  1.00000000
 
ion      s     py     pz     px    dxy    dyz    dz2    dxz  x2-y2    tot
    1  0.000  0.000  0.000  0.000  0.000  0.000  0.000  0.000  0.000  0.000
    2  0.000  0.102  0.000  0.893  0.000  0.000  0.000  0.000  0.000  0.995
    3  0.000  0.000  0.000  0.000  0.000  0.000  0.000  0.000  0.000  0.000
    4  0.000  0.000  0.000  0.000  0.000  0.000  0.000  0.000  0.000  0.000
tot    0.000  0.102  0.000  0.893  0.000  0.000  0.000  0.000  0.000  0.995
 
band     2 # energy  -44.23126152 # occ.  1.00000000
 
ion      s     py     pz     px    dxy    dyz    dz2    dxz  x2-y2    tot
    1  0.000  0.000  0.000  0.000  0.000  0.000  0.000  0.000  0.000  0.000
    2  0.000  0.893  0.000  0.102  0.000  0.000  0.000  0.000  0.000  0.995
    3  0.000  0.000  0.000  0.000  0.000  0.000  0.000  0.000  0.000  0.000
    4  0.000  0.000  0.000  0.000  0.000  0.000  0.000  0.000  0.000  0.000
tot    0.000  0.893  0.000  0.102  0.000  0.000  0.000  0.000  0.000  0.995
 
band     3 # energy  -44.22829214 # occ.  1.00000000
 
ion      s     py     pz     px    dxy    dyz    dz2    dxz  x2-y2    tot
    1  0.000  0.000  0.000  0.000  0.000  0.000  0.000  0.000  0.000  0.000
    2  0.000  0.000  0.995  0.000  0.000  0.000  0.000  0.000  0.000  0.995
    3  0.000  0.000  0.000  0.000  0.000  0.000  0.000  0.000  0.000  0.000
    4  0.000  0.000  0.000  0.000  0.000  0.000  0.000  0.000  0.000  0.000
tot    0.000  0.000  0.995  0.000  0.000  0.000  0.000  0.000  0.000  0.995
 
band     4 # energy  -39.85061860 # occ.  1.00000000
 
ion      s     py     pz     px    dxy    dyz    dz2    dxz  x2-y2    tot
    1  0.000  0.000  0.995  0.000  0.000  0.000  0.000  0.000  0.000  0.995
    2  0.000  0.000  0.000  0.000  0.000  0.000  0.000  0.000  0.000  0.000
    3  0.000  0.000  0.000  0.000  0.000  0.000  0.000  0.000  0.000  0.000
    4  0.000  0.000  0.000  0.000  0.000  0.000  0.000  0.000  0.000  0.000
tot    0.000  0.000  0.995  0.000  0.000  0.000  0.000  0.000  0.000  0.995
 
band     5 # energy  -39.84363235 # occ.  1.00000000
 
ion      s     py     pz     px    dxy    dyz    dz2    dxz  x2-y2    tot
    1  0.000  0.114  0.000  0.882  0.000  0.000  0.000  0.000  0.000  0.996
    2  0.000  0.000  0.000  0.000  0.000  0.000  0.000  0.000  0.000  0.000
    3  0.000  0.000  0.000  0.000  0.000  0.000  0.000  0.000  0.000  0.000
    4  0.000  0.000  0.000  0.000  0.000  0.000  0.000  0.000  0.000  0.000
tot    0.000  0.114  0.000  0.882  0.000  0.000  0.000  0.000  0.000  0.996
 
band     6 # energy  -39.84361721 # occ.  1.00000000
 
ion      s     py     pz     px    dxy    dyz    dz2    dxz  x2-y2    tot
    1  0.000  0.882  0.000  0.114  0.000  0.000  0.000  0.000  0.000  0.996
    2  0.000  0.000  0.000  0.000  0.000  0.000  0.000  0.000  0.000  0.000
    3  0.000  0.000  0.000  0.000  0.000  0.000  0.000  0.000  0.000  0.000
    4  0.000  0.000  0.000  0.000  0.000  0.000  0.000  0.000  0.000  0.000
tot    0.000  0.882  0.000  0.114  0.000  0.000  0.000  0.000  0.000  0.996
 
band     7 # energy   -5.47429874 # occ.  1.00000000
 
ion      s     py     pz     px    dxy    dyz    dz2    dxz  x2-y2    tot
    1  0.000  0.000  0.005  0.000  0.000  0.000  0.000  0.000  0.000  0.005
    2  0.030  0.000  0.000  0.000  0.000  0.000  0.000  0.000  0.000  0.030
    3  0.289  0.000  0.001  0.000  0.000  0.000  0.000  0.000  0.000  0.290
    4  0.289  0.000  0.001  0.000  0.000  0.000  0.000  0.000  0.000  0.290
tot    0.608  0.000  0.007  0.000  0.000  0.000  0.000  0.000  0.000  0.615
 
band     8 # energy   -5.42941057 # occ.  1.00000000
 
ion      s     py     pz     px    dxy    dyz    dz2    dxz  x2-y2    tot
    1  0.023  0.000  0.000  0.000  0.000  0.000  0.000  0.000  0.000  0.023
    2  0.000  0.000  0.006  0.000  0.000  0.000  0.000  0.000  0.000  0.006
    3  0.293  0.000  0.001  0.000  0.000  0.000  0.000  0.000  0.000  0.294
    4  0.293  0.000  0.001  0.000  0.000  0.000  0.000  0.000  0.000  0.294
tot    0.610  0.000  0.008  0.000  0.000  0.000  0.000  0.000  0.000  0.618
 
band     9 # energy    2.15984892 # occ.  1.00000000
 
ion      s     py     pz     px    dxy    dyz    dz2    dxz  x2-y2    tot
    1  0.000  0.000  0.008  0.000  0.001  0.000  0.000  0.001  0.000  0.010
    2  0.052  0.000  0.000  0.000  0.000  0.000  0.284  0.000  0.000  0.336
    3  0.019  0.000  0.095  0.000  0.000  0.000  0.001  0.000  0.000  0.115
    4  0.019  0.000  0.095  0.000  0.000  0.000  0.001  0.000  0.000  0.115
tot    0.090  0.000  0.197  0.001  0.001  0.000  0.286  0.001  0.000  0.576
 
band    10 # energy    2.52587532 # occ.  1.00000000
 
ion      s     py     pz     px    dxy    dyz    dz2    dxz  x2-y2    tot
    1  0.029  0.000  0.000  0.000  0.000  0.000  0.010  0.000  0.000  0.039
    2  0.000  0.000  0.003  0.000  0.199  0.036  0.000  0.108  0.066  0.412
    3  0.011  0.008  0.061  0.023  0.000  0.000  0.000  0.000  0.000  0.104
    4  0.011  0.008  0.061  0.023  0.000  0.000  0.000  0.000  0.000  0.104
tot    0.051  0.016  0.125  0.047  0.199  0.036  0.010  0.109  0.066  0.660
 
band    11 # energy    2.71723495 # occ.  1.00000000
 
ion      s     py     pz     px    dxy    dyz    dz2    dxz  x2-y2    tot
    1  0.000  0.001  0.000  0.000  0.000  0.000  0.000  0.000  0.000  0.001
    2  0.000  0.000  0.000  0.000  0.116  0.179  0.000  0.060  0.349  0.704
    3  0.000  0.037  0.000  0.012  0.000  0.001  0.000  0.000  0.000  0.051
    4  0.000  0.037  0.000  0.012  0.000  0.001  0.000  0.000  0.000  0.051
tot    0.000  0.075  0.000  0.025  0.116  0.181  0.000  0.060  0.349  0.808
 
band    12 # energy    2.97140240 # occ.  1.00000000
 
ion      s     py     pz     px    dxy    dyz    dz2    dxz  x2-y2    tot
    1  0.033  0.000  0.000  0.001  0.000  0.000  0.026  0.000  0.000  0.061
    2  0.000  0.000  0.010  0.000  0.168  0.016  0.000  0.049  0.056  0.299
    3  0.013  0.005  0.089  0.014  0.000  0.000  0.001  0.001  0.000  0.123
    4  0.013  0.005  0.089  0.014  0.000  0.000  0.001  0.001  0.000  0.123
tot    0.060  0.010  0.187  0.030  0.168  0.017  0.028  0.050  0.056  0.606
 
band    13 # energy    3.29150194 # occ.  1.00000000
 
ion      s     py     pz     px    dxy    dyz    dz2    dxz  x2-y2    tot
    1  0.000  0.000  0.000  0.000  0.001  0.000  0.000  0.000  0.000  0.002
    2  0.000  0.000  0.000  0.000  0.205  0.151  0.003  0.452  0.068  0.879
    3  0.000  0.001  0.001  0.002  0.001  0.000  0.000  0.000  0.000  0.005
    4  0.000  0.001  0.001  0.002  0.001  0.000  0.000  0.000  0.000  0.005
tot    0.001  0.002  0.001  0.005  0.208  0.151  0.003  0.452  0.069  0.892
 
band    14 # energy    3.29640449 # occ.  1.00000000
 
ion      s     py     pz     px    dxy    dyz    dz2    dxz  x2-y2    tot
    1  0.000  0.000  0.000  0.000  0.000  0.000  0.000  0.000  0.000  0.001
    2  0.000  0.000  0.000  0.000  0.077  0.435  0.000  0.145  0.231  0.888
    3  0.000  0.002  0.000  0.001  0.000  0.000  0.000  0.000  0.001  0.004
    4  0.000  0.002  0.000  0.001  0.000  0.000  0.000  0.000  0.001  0.004
tot    0.000  0.004  0.000  0.001  0.078  0.436  0.000  0.145  0.233  0.896
 
band    15 # energy    3.69519564 # occ.  1.00000000
 
ion      s     py     pz     px    dxy    dyz    dz2    dxz  x2-y2    tot
    1  0.000  0.000  0.000  0.000  0.011  0.003  0.000  0.008  0.004  0.024
    2  0.050  0.000  0.000  0.000  0.002  0.002  0.525  0.005  0.001  0.584
    3  0.019  0.005  0.039  0.015  0.000  0.000  0.000  0.000  0.000  0.079
    4  0.019  0.005  0.039  0.015  0.000  0.000  0.000  0.000  0.000  0.079
tot    0.088  0.010  0.078  0.030  0.013  0.004  0.526  0.012  0.004  0.766
 
band    16 # energy    4.51107962 # occ.  1.00000000
 
ion      s     py     pz     px    dxy    dyz    dz2    dxz  x2-y2    tot
    1  0.000  0.000  0.000  0.000  0.035  0.072  0.000  0.024  0.105  0.236
    2  0.000  0.008  0.000  0.003  0.001  0.004  0.000  0.001  0.003  0.019
    3  0.000  0.132  0.000  0.044  0.000  0.001  0.000  0.000  0.000  0.178
    4  0.000  0.132  0.000  0.044  0.000  0.001  0.000  0.000  0.000  0.178
tot    0.000  0.273  0.000  0.091  0.036  0.078  0.000  0.026  0.109  0.612
 
band    17 # energy    4.57778013 # occ.  1.00000000
 
ion      s     py     pz     px    dxy    dyz    dz2    dxz  x2-y2    tot
    1  0.000  0.000  0.002  0.000  0.090  0.019  0.000  0.057  0.030  0.198
    2  0.004  0.003  0.000  0.008  0.002  0.001  0.066  0.003  0.001  0.088
    3  0.001  0.039  0.013  0.116  0.000  0.000  0.000  0.001  0.000  0.170
    4  0.001  0.039  0.013  0.116  0.000  0.000  0.000  0.001  0.000  0.170
tot    0.006  0.080  0.028  0.241  0.093  0.021  0.066  0.062  0.031  0.628
 
band    18 # energy    6.09695353 # occ.  1.00000000
 
ion      s     py     pz     px    dxy    dyz    dz2    dxz  x2-y2    tot
    1  0.010  0.003  0.000  0.009  0.009  0.004  0.045  0.013  0.003  0.096
    2  0.000  0.000  0.006  0.001  0.096  0.020  0.000  0.061  0.032  0.216
    3  0.008  0.042  0.000  0.126  0.000  0.000  0.001  0.001  0.000  0.178
    4  0.008  0.042  0.000  0.126  0.000  0.000  0.001  0.001  0.000  0.178
tot    0.025  0.087  0.006  0.261  0.106  0.025  0.047  0.075  0.035  0.668
 
band    19 # energy    6.30087734 # occ.  0.99999922
 
ion      s     py     pz     px    dxy    dyz    dz2    dxz  x2-y2    tot
    1  0.000  0.011  0.000  0.004  0.006  0.025  0.000  0.008  0.017  0.069
    2  0.000  0.001  0.000  0.000  0.032  0.062  0.000  0.021  0.095  0.212
    3  0.000  0.148  0.000  0.049  0.000  0.001  0.000  0.000  0.001  0.198
    4  0.000  0.148  0.000  0.049  0.000  0.001  0.000  0.000  0.001  0.198
tot    0.000  0.307  0.000  0.102  0.038  0.088  0.000  0.029  0.113  0.678
 
band    20 # energy    6.97146462 # occ.  0.00000000
 
ion      s     py     pz     px    dxy    dyz    dz2    dxz  x2-y2    tot
    1  0.012  0.000  0.000  0.000  0.131  0.071  0.265  0.214  0.044  0.737
    2  0.000  0.001  0.005  0.002  0.000  0.000  0.000  0.000  0.000  0.007
    3  0.007  0.000  0.003  0.001  0.003  0.000  0.002  0.000  0.001  0.018
    4  0.007  0.000  0.003  0.001  0.003  0.000  0.002  0.000  0.001  0.018
tot    0.027  0.001  0.012  0.003  0.136  0.072  0.269  0.215  0.045  0.780
 
band    21 # energy    7.08257495 # occ.  0.00000000
 
ion      s     py     pz     px    dxy    dyz    dz2    dxz  x2-y2    tot
    1  0.000  0.001  0.000  0.000  0.072  0.343  0.000  0.114  0.215  0.745
    2  0.000  0.002  0.000  0.001  0.002  0.005  0.000  0.002  0.007  0.018
    3  0.000  0.015  0.000  0.005  0.001  0.000  0.000  0.000  0.004  0.025
    4  0.000  0.015  0.000  0.005  0.001  0.000  0.000  0.000  0.004  0.025
tot    0.000  0.032  0.000  0.011  0.076  0.348  0.000  0.116  0.229  0.813
 
band    22 # energy    7.14941739 # occ.  0.00000000
 
ion      s     py     pz     px    dxy    dyz    dz2    dxz  x2-y2    tot
    1  0.010  0.001  0.000  0.002  0.087  0.047  0.342  0.140  0.029  0.657
    2  0.000  0.000  0.003  0.000  0.011  0.002  0.000  0.006  0.004  0.026
    3  0.005  0.010  0.006  0.029  0.001  0.000  0.002  0.000  0.000  0.053
    4  0.005  0.010  0.006  0.029  0.001  0.000  0.002  0.000  0.000  0.053
tot    0.020  0.020  0.015  0.060  0.100  0.049  0.347  0.146  0.033  0.790
 
band    23 # energy    8.02738196 # occ.  0.00000000
 
ion      s     py     pz     px    dxy    dyz    dz2    dxz  x2-y2    tot
    1  0.000  0.000  0.004  0.000  0.262  0.065  0.000  0.196  0.087  0.615
    2  0.012  0.004  0.000  0.013  0.000  0.000  0.005  0.001  0.000  0.036
    3  0.007  0.016  0.004  0.049  0.000  0.001  0.000  0.004  0.000  0.082
    4  0.007  0.016  0.004  0.049  0.000  0.001  0.000  0.004  0.000  0.082
tot    0.027  0.037  0.011  0.111  0.262  0.068  0.006  0.205  0.087  0.815
 
band    24 # energy    8.17154437 # occ.  0.00000000
 
ion      s     py     pz     px    dxy    dyz    dz2    dxz  x2-y2    tot
    1  0.000  0.000  0.000  0.000  0.092  0.199  0.000  0.066  0.275  0.633
    2  0.000  0.015  0.000  0.005  0.000  0.001  0.000  0.000  0.000  0.021
    3  0.000  0.063  0.000  0.021  0.000  0.004  0.000  0.001  0.000  0.089
    4  0.000  0.063  0.000  0.021  0.000  0.004  0.000  0.001  0.000  0.089
tot    0.000  0.141  0.000  0.047  0.092  0.208  0.000  0.069  0.276  0.833
 

 k-point    19 :   -0.02631579 0.00000000 0.50000000     weight = 0.02500000

band     1 # energy  -44.23126765 # occ.  1.00000000
 
ion      s     py     pz     px    dxy    dyz    dz2    dxz  x2-y2    tot
    1  0.000  0.000  0.000  0.000  0.000  0.000  0.000  0.000  0.000  0.000
    2  0.000  0.141  0.000  0.854  0.000  0.000  0.000  0.000  0.000  0.995
    3  0.000  0.000  0.000  0.000  0.000  0.000  0.000  0.000  0.000  0.000
    4  0.000  0.000  0.000  0.000  0.000  0.000  0.000  0.000  0.000  0.000
tot    0.000  0.141  0.000  0.854  0.000  0.000  0.000  0.000  0.000  0.995
 
band     2 # energy  -44.23125493 # occ.  1.00000000
 
ion      s     py     pz     px    dxy    dyz    dz2    dxz  x2-y2    tot
    1  0.000  0.000  0.000  0.000  0.000  0.000  0.000  0.000  0.000  0.000
    2  0.000  0.854  0.000  0.141  0.000  0.000  0.000  0.000  0.000  0.995
    3  0.000  0.000  0.000  0.000  0.000  0.000  0.000  0.000  0.000  0.000
    4  0.000  0.000  0.000  0.000  0.000  0.000  0.000  0.000  0.000  0.000
tot    0.000  0.854  0.000  0.141  0.000  0.000  0.000  0.000  0.000  0.995
 
band     3 # energy  -44.22830273 # occ.  1.00000000
 
ion      s     py     pz     px    dxy    dyz    dz2    dxz  x2-y2    tot
    1  0.000  0.000  0.000  0.000  0.000  0.000  0.000  0.000  0.000  0.000
    2  0.000  0.000  0.995  0.000  0.000  0.000  0.000  0.000  0.000  0.995
    3  0.000  0.000  0.000  0.000  0.000  0.000  0.000  0.000  0.000  0.000
    4  0.000  0.000  0.000  0.000  0.000  0.000  0.000  0.000  0.000  0.000
tot    0.000  0.000  0.995  0.000  0.000  0.000  0.000  0.000  0.000  0.995
 
band     4 # energy  -39.85063293 # occ.  1.00000000
 
ion      s     py     pz     px    dxy    dyz    dz2    dxz  x2-y2    tot
    1  0.000  0.000  0.995  0.000  0.000  0.000  0.000  0.000  0.000  0.995
    2  0.000  0.000  0.000  0.000  0.000  0.000  0.000  0.000  0.000  0.000
    3  0.000  0.000  0.000  0.000  0.000  0.000  0.000  0.000  0.000  0.000
    4  0.000  0.000  0.000  0.000  0.000  0.000  0.000  0.000  0.000  0.000
tot    0.000  0.000  0.995  0.000  0.000  0.000  0.000  0.000  0.000  0.995
 
band     5 # energy  -39.84362453 # occ.  1.00000000
 
ion      s     py     pz     px    dxy    dyz    dz2    dxz  x2-y2    tot
    1  0.000  0.135  0.000  0.860  0.000  0.000  0.000  0.000  0.000  0.996
    2  0.000  0.000  0.000  0.000  0.000  0.000  0.000  0.000  0.000  0.000
    3  0.000  0.000  0.000  0.000  0.000  0.000  0.000  0.000  0.000  0.000
    4  0.000  0.000  0.000  0.000  0.000  0.000  0.000  0.000  0.000  0.000
tot    0.000  0.135  0.000  0.860  0.000  0.000  0.000  0.000  0.000  0.996
 
band     6 # energy  -39.84360613 # occ.  1.00000000
 
ion      s     py     pz     px    dxy    dyz    dz2    dxz  x2-y2    tot
    1  0.000  0.860  0.000  0.135  0.000  0.000  0.000  0.000  0.000  0.996
    2  0.000  0.000  0.000  0.000  0.000  0.000  0.000  0.000  0.000  0.000
    3  0.000  0.000  0.000  0.000  0.000  0.000  0.000  0.000  0.000  0.000
    4  0.000  0.000  0.000  0.000  0.000  0.000  0.000  0.000  0.000  0.000
tot    0.000  0.860  0.000  0.135  0.000  0.000  0.000  0.000  0.000  0.996
 
band     7 # energy   -5.48772085 # occ.  1.00000000
 
ion      s     py     pz     px    dxy    dyz    dz2    dxz  x2-y2    tot
    1  0.000  0.000  0.005  0.000  0.000  0.000  0.000  0.000  0.000  0.005
    2  0.030  0.000  0.000  0.000  0.000  0.000  0.000  0.000  0.000  0.030
    3  0.288  0.000  0.001  0.000  0.000  0.000  0.000  0.000  0.000  0.290
    4  0.288  0.000  0.001  0.000  0.000  0.000  0.000  0.000  0.000  0.290
tot    0.607  0.000  0.007  0.000  0.000  0.000  0.000  0.000  0.000  0.614
 
band     8 # energy   -5.44211452 # occ.  1.00000000
 
ion      s     py     pz     px    dxy    dyz    dz2    dxz  x2-y2    tot
    1  0.024  0.000  0.000  0.000  0.000  0.000  0.000  0.000  0.000  0.024
    2  0.000  0.000  0.006  0.000  0.000  0.000  0.000  0.000  0.000  0.006
    3  0.293  0.000  0.001  0.000  0.000  0.000  0.000  0.000  0.000  0.294
    4  0.293  0.000  0.001  0.000  0.000  0.000  0.000  0.000  0.000  0.294
tot    0.609  0.000  0.008  0.000  0.000  0.000  0.000  0.000  0.000  0.618
 
band     9 # energy    2.15422885 # occ.  1.00000000
 
ion      s     py     pz     px    dxy    dyz    dz2    dxz  x2-y2    tot
    1  0.000  0.000  0.008  0.000  0.000  0.000  0.000  0.000  0.000  0.008
    2  0.051  0.000  0.000  0.000  0.000  0.000  0.290  0.000  0.000  0.340
    3  0.019  0.000  0.094  0.000  0.000  0.000  0.001  0.000  0.000  0.114
    4  0.019  0.000  0.094  0.000  0.000  0.000  0.001  0.000  0.000  0.114
tot    0.088  0.000  0.197  0.000  0.000  0.000  0.292  0.000  0.000  0.577
 
band    10 # energy    2.63053257 # occ.  1.00000000
 
ion      s     py     pz     px    dxy    dyz    dz2    dxz  x2-y2    tot
    1  0.024  0.000  0.000  0.000  0.000  0.000  0.011  0.000  0.000  0.035
    2  0.000  0.000  0.003  0.000  0.223  0.038  0.000  0.115  0.074  0.453
    3  0.009  0.008  0.054  0.024  0.000  0.000  0.000  0.001  0.000  0.097
    4  0.009  0.008  0.054  0.024  0.000  0.000  0.000  0.001  0.000  0.097
tot    0.043  0.016  0.111  0.049  0.223  0.039  0.011  0.116  0.074  0.682
 
band    11 # energy    2.71492876 # occ.  1.00000000
 
ion      s     py     pz     px    dxy    dyz    dz2    dxz  x2-y2    tot
    1  0.000  0.001  0.000  0.000  0.000  0.000  0.000  0.000  0.000  0.001
    2  0.000  0.000  0.000  0.000  0.118  0.174  0.000  0.058  0.355  0.705
    3  0.000  0.037  0.000  0.012  0.000  0.001  0.000  0.000  0.000  0.051
    4  0.000  0.037  0.000  0.012  0.000  0.001  0.000  0.000  0.000  0.051
tot    0.000  0.075  0.000  0.025  0.119  0.176  0.000  0.059  0.356  0.808
 
band    12 # energy    2.85938377 # occ.  1.00000000
 
ion      s     py     pz     px    dxy    dyz    dz2    dxz  x2-y2    tot
    1  0.038  0.000  0.000  0.001  0.000  0.000  0.025  0.000  0.000  0.065
    2  0.000  0.000  0.009  0.000  0.136  0.018  0.000  0.054  0.045  0.263
    3  0.015  0.004  0.096  0.013  0.000  0.000  0.001  0.000  0.000  0.130
    4  0.015  0.004  0.096  0.013  0.000  0.000  0.001  0.000  0.000  0.130
tot    0.069  0.009  0.202  0.026  0.137  0.018  0.027  0.055  0.046  0.588
 
band    13 # energy    3.30198059 # occ.  1.00000000
 
ion      s     py     pz     px    dxy    dyz    dz2    dxz  x2-y2    tot
    1  0.000  0.000  0.000  0.000  0.000  0.000  0.000  0.000  0.000  0.001
    2  0.000  0.000  0.000  0.000  0.219  0.150  0.000  0.450  0.073  0.893
    3  0.000  0.000  0.000  0.001  0.001  0.000  0.000  0.000  0.000  0.003
    4  0.000  0.000  0.000  0.001  0.001  0.000  0.000  0.000  0.000  0.003
tot    0.000  0.001  0.000  0.002  0.222  0.150  0.000  0.451  0.074  0.899
 
band    14 # energy    3.30282454 # occ.  1.00000000
 
ion      s     py     pz     px    dxy    dyz    dz2    dxz  x2-y2    tot
    1  0.000  0.000  0.000  0.000  0.000  0.000  0.000  0.000  0.000  0.001
    2  0.000  0.000  0.000  0.000  0.075  0.446  0.000  0.148  0.225  0.894
    3  0.000  0.001  0.000  0.000  0.000  0.000  0.000  0.000  0.001  0.002
    4  0.000  0.001  0.000  0.000  0.000  0.000  0.000  0.000  0.001  0.002
tot    0.000  0.002  0.000  0.001  0.076  0.446  0.000  0.148  0.227  0.899
 
band    15 # energy    3.77040865 # occ.  1.00000000
 
ion      s     py     pz     px    dxy    dyz    dz2    dxz  x2-y2    tot
    1  0.000  0.000  0.000  0.000  0.004  0.001  0.000  0.003  0.001  0.008
    2  0.054  0.000  0.000  0.000  0.000  0.000  0.566  0.000  0.000  0.621
    3  0.020  0.002  0.048  0.005  0.000  0.000  0.000  0.000  0.000  0.075
    4  0.020  0.002  0.048  0.005  0.000  0.000  0.000  0.000  0.000  0.075
tot    0.095  0.003  0.095  0.010  0.004  0.001  0.567  0.003  0.001  0.780
 
band    16 # energy    4.51130591 # occ.  1.00000000
 
ion      s     py     pz     px    dxy    dyz    dz2    dxz  x2-y2    tot
    1  0.000  0.000  0.000  0.000  0.036  0.071  0.000  0.024  0.108  0.239
    2  0.000  0.008  0.000  0.003  0.000  0.001  0.000  0.000  0.001  0.013
    3  0.000  0.133  0.000  0.044  0.000  0.001  0.000  0.000  0.000  0.179
    4  0.000  0.133  0.000  0.044  0.000  0.001  0.000  0.000  0.000  0.179
tot    0.000  0.274  0.000  0.091  0.037  0.074  0.000  0.025  0.110  0.610
 
band    17 # energy    4.53019267 # occ.  1.00000000
 
ion      s     py     pz     px    dxy    dyz    dz2    dxz  x2-y2    tot
    1  0.000  0.000  0.001  0.000  0.104  0.022  0.000  0.067  0.035  0.228
    2  0.001  0.003  0.000  0.008  0.001  0.000  0.021  0.001  0.000  0.035
    3  0.000  0.043  0.004  0.128  0.000  0.000  0.000  0.001  0.000  0.176
    4  0.000  0.043  0.004  0.128  0.000  0.000  0.000  0.001  0.000  0.176
tot    0.002  0.088  0.008  0.263  0.105  0.023  0.021  0.069  0.035  0.615
 
band    18 # energy    6.30581294 # occ.  0.99999845
 
ion      s     py     pz     px    dxy    dyz    dz2    dxz  x2-y2    tot
    1  0.004  0.003  0.000  0.010  0.004  0.002  0.027  0.007  0.001  0.059
    2  0.000  0.000  0.002  0.000  0.098  0.021  0.000  0.062  0.033  0.216
    3  0.003  0.049  0.000  0.147  0.000  0.000  0.000  0.000  0.000  0.200
    4  0.003  0.049  0.000  0.147  0.000  0.000  0.000  0.000  0.000  0.200
tot    0.011  0.101  0.002  0.304  0.103  0.023  0.028  0.069  0.034  0.676
 
band    19 # energy    6.37212818 # occ.  0.99735305
 
ion      s     py     pz     px    dxy    dyz    dz2    dxz  x2-y2    tot
    1  0.000  0.011  0.000  0.004  0.002  0.009  0.000  0.003  0.006  0.034
    2  0.000  0.000  0.000  0.000  0.034  0.064  0.000  0.021  0.101  0.220
    3  0.000  0.159  0.000  0.053  0.000  0.000  0.000  0.000  0.000  0.212
    4  0.000  0.159  0.000  0.053  0.000  0.000  0.000  0.000  0.000  0.212
tot    0.000  0.329  0.000  0.110  0.036  0.074  0.000  0.025  0.107  0.679
 
band    20 # energy    6.96918331 # occ.  0.00000000
 
ion      s     py     pz     px    dxy    dyz    dz2    dxz  x2-y2    tot
    1  0.021  0.000  0.000  0.000  0.060  0.033  0.459  0.099  0.020  0.692
    2  0.000  0.000  0.008  0.001  0.001  0.000  0.000  0.001  0.000  0.012
    3  0.013  0.001  0.006  0.004  0.001  0.000  0.004  0.000  0.000  0.029
    4  0.013  0.001  0.006  0.004  0.001  0.000  0.004  0.000  0.000  0.029
tot    0.047  0.003  0.020  0.008  0.063  0.033  0.467  0.100  0.021  0.762
 
band    21 # energy    7.02648106 # occ.  0.00000000
 
ion      s     py     pz     px    dxy    dyz    dz2    dxz  x2-y2    tot
    1  0.000  0.000  0.000  0.000  0.073  0.362  0.000  0.121  0.220  0.776
    2  0.000  0.002  0.000  0.001  0.001  0.002  0.000  0.001  0.003  0.009
    3  0.000  0.005  0.000  0.002  0.001  0.000  0.000  0.000  0.004  0.013
    4  0.000  0.005  0.000  0.002  0.001  0.000  0.000  0.000  0.004  0.013
tot    0.000  0.013  0.000  0.004  0.077  0.365  0.000  0.122  0.230  0.810
 
band    22 # energy    7.03682933 # occ.  0.00000000
 
ion      s     py     pz     px    dxy    dyz    dz2    dxz  x2-y2    tot
    1  0.006  0.000  0.000  0.001  0.160  0.088  0.153  0.265  0.053  0.727
    2  0.000  0.001  0.002  0.002  0.005  0.001  0.000  0.003  0.002  0.015
    3  0.003  0.004  0.002  0.012  0.003  0.000  0.001  0.000  0.001  0.027
    4  0.003  0.004  0.002  0.012  0.003  0.000  0.001  0.000  0.001  0.027
tot    0.013  0.009  0.006  0.026  0.171  0.090  0.155  0.269  0.057  0.795
 
band    23 # energy    8.15059385 # occ.  0.00000000
 
ion      s     py     pz     px    dxy    dyz    dz2    dxz  x2-y2    tot
    1  0.000  0.000  0.001  0.000  0.272  0.065  0.000  0.194  0.091  0.623
    2  0.004  0.005  0.000  0.014  0.000  0.000  0.002  0.000  0.000  0.025
    3  0.002  0.020  0.001  0.060  0.000  0.001  0.000  0.004  0.000  0.089
    4  0.002  0.020  0.001  0.060  0.000  0.001  0.000  0.004  0.000  0.089
tot    0.009  0.045  0.004  0.135  0.273  0.067  0.002  0.202  0.091  0.827
 
band    24 # energy    8.19207794 # occ.  0.00000000
 
ion      s     py     pz     px    dxy    dyz    dz2    dxz  x2-y2    tot
    1  0.000  0.000  0.000  0.000  0.092  0.196  0.000  0.065  0.277  0.631
    2  0.000  0.015  0.000  0.005  0.000  0.000  0.000  0.000  0.000  0.020
    3  0.000  0.065  0.000  0.022  0.000  0.004  0.000  0.001  0.000  0.091
    4  0.000  0.065  0.000  0.022  0.000  0.004  0.000  0.001  0.000  0.091
tot    0.000  0.144  0.000  0.048  0.092  0.204  0.000  0.068  0.277  0.834
 

 k-point    20 :   -0.00000000 0.00000000 0.50000000     weight = 0.02500000

band     1 # energy  -44.23125450 # occ.  1.00000000
 
ion      s     py     pz     px    dxy    dyz    dz2    dxz  x2-y2    tot
    1  0.000  0.000  0.000  0.000  0.000  0.000  0.000  0.000  0.000  0.000
    2  0.000  0.247  0.000  0.748  0.000  0.000  0.000  0.000  0.000  0.995
    3  0.000  0.000  0.000  0.000  0.000  0.000  0.000  0.000  0.000  0.000
    4  0.000  0.000  0.000  0.000  0.000  0.000  0.000  0.000  0.000  0.000
tot    0.000  0.247  0.000  0.748  0.000  0.000  0.000  0.000  0.000  0.995
 
band     2 # energy  -44.23125052 # occ.  1.00000000
 
ion      s     py     pz     px    dxy    dyz    dz2    dxz  x2-y2    tot
    1  0.000  0.000  0.000  0.000  0.000  0.000  0.000  0.000  0.000  0.000
    2  0.000  0.748  0.000  0.247  0.000  0.000  0.000  0.000  0.000  0.995
    3  0.000  0.000  0.000  0.000  0.000  0.000  0.000  0.000  0.000  0.000
    4  0.000  0.000  0.000  0.000  0.000  0.000  0.000  0.000  0.000  0.000
tot    0.000  0.748  0.000  0.247  0.000  0.000  0.000  0.000  0.000  0.995
 
band     3 # energy  -44.22829755 # occ.  1.00000000
 
ion      s     py     pz     px    dxy    dyz    dz2    dxz  x2-y2    tot
    1  0.000  0.000  0.000  0.000  0.000  0.000  0.000  0.000  0.000  0.000
    2  0.000  0.000  0.995  0.000  0.000  0.000  0.000  0.000  0.000  0.995
    3  0.000  0.000  0.000  0.000  0.000  0.000  0.000  0.000  0.000  0.000
    4  0.000  0.000  0.000  0.000  0.000  0.000  0.000  0.000  0.000  0.000
tot    0.000  0.000  0.995  0.000  0.000  0.000  0.000  0.000  0.000  0.995
 
band     4 # energy  -39.85062728 # occ.  1.00000000
 
ion      s     py     pz     px    dxy    dyz    dz2    dxz  x2-y2    tot
    1  0.000  0.000  0.995  0.000  0.000  0.000  0.000  0.000  0.000  0.995
    2  0.000  0.000  0.000  0.000  0.000  0.000  0.000  0.000  0.000  0.000
    3  0.000  0.000  0.000  0.000  0.000  0.000  0.000  0.000  0.000  0.000
    4  0.000  0.000  0.000  0.000  0.000  0.000  0.000  0.000  0.000  0.000
tot    0.000  0.000  0.995  0.000  0.000  0.000  0.000  0.000  0.000  0.995
 
band     5 # energy  -39.84360529 # occ.  1.00000000
 
ion      s     py     pz     px    dxy    dyz    dz2    dxz  x2-y2    tot
    1  0.000  0.247  0.000  0.748  0.000  0.000  0.000  0.000  0.000  0.996
    2  0.000  0.000  0.000  0.000  0.000  0.000  0.000  0.000  0.000  0.000
    3  0.000  0.000  0.000  0.000  0.000  0.000  0.000  0.000  0.000  0.000
    4  0.000  0.000  0.000  0.000  0.000  0.000  0.000  0.000  0.000  0.000
tot    0.000  0.247  0.000  0.748  0.000  0.000  0.000  0.000  0.000  0.996
 
band     6 # energy  -39.84359918 # occ.  1.00000000
 
ion      s     py     pz     px    dxy    dyz    dz2    dxz  x2-y2    tot
    1  0.000  0.748  0.000  0.247  0.000  0.000  0.000  0.000  0.000  0.996
    2  0.000  0.000  0.000  0.000  0.000  0.000  0.000  0.000  0.000  0.000
    3  0.000  0.000  0.000  0.000  0.000  0.000  0.000  0.000  0.000  0.000
    4  0.000  0.000  0.000  0.000  0.000  0.000  0.000  0.000  0.000  0.000
tot    0.000  0.748  0.000  0.247  0.000  0.000  0.000  0.000  0.000  0.996
 
band     7 # energy   -5.49221253 # occ.  1.00000000
 
ion      s     py     pz     px    dxy    dyz    dz2    dxz  x2-y2    tot
    1  0.000  0.000  0.005  0.000  0.000  0.000  0.000  0.000  0.000  0.005
    2  0.030  0.000  0.000  0.000  0.000  0.000  0.000  0.000  0.000  0.030
    3  0.288  0.000  0.001  0.000  0.000  0.000  0.000  0.000  0.000  0.290
    4  0.288  0.000  0.001  0.000  0.000  0.000  0.000  0.000  0.000  0.290
tot    0.607  0.000  0.007  0.000  0.000  0.000  0.000  0.000  0.000  0.614
 
band     8 # energy   -5.44636655 # occ.  1.00000000
 
ion      s     py     pz     px    dxy    dyz    dz2    dxz  x2-y2    tot
    1  0.024  0.000  0.000  0.000  0.000  0.000  0.000  0.000  0.000  0.024
    2  0.000  0.000  0.006  0.000  0.000  0.000  0.000  0.000  0.000  0.006
    3  0.292  0.000  0.001  0.000  0.000  0.000  0.000  0.000  0.000  0.294
    4  0.292  0.000  0.001  0.000  0.000  0.000  0.000  0.000  0.000  0.294
tot    0.609  0.000  0.008  0.000  0.000  0.000  0.000  0.000  0.000  0.617
 
band     9 # energy    2.15224808 # occ.  1.00000000
 
ion      s     py     pz     px    dxy    dyz    dz2    dxz  x2-y2    tot
    1  0.000  0.000  0.008  0.000  0.000  0.000  0.000  0.000  0.000  0.008
    2  0.051  0.000  0.000  0.000  0.000  0.000  0.291  0.000  0.000  0.342
    3  0.019  0.000  0.094  0.000  0.000  0.000  0.001  0.000  0.000  0.114
    4  0.019  0.000  0.094  0.000  0.000  0.000  0.001  0.000  0.000  0.114
tot    0.088  0.000  0.197  0.000  0.000  0.000  0.293  0.000  0.000  0.578
 
band    10 # energy    2.71413070 # occ.  1.00000000
 
ion      s     py     pz     px    dxy    dyz    dz2    dxz  x2-y2    tot
    1  0.000  0.000  0.000  0.001  0.000  0.000  0.000  0.000  0.000  0.001
    2  0.000  0.000  0.000  0.000  0.364  0.054  0.000  0.175  0.113  0.705
    3  0.000  0.012  0.000  0.037  0.000  0.000  0.000  0.001  0.000  0.051
    4  0.000  0.012  0.000  0.037  0.000  0.000  0.000  0.001  0.000  0.051
tot    0.000  0.024  0.000  0.076  0.364  0.055  0.000  0.177  0.113  0.808
 
band    11 # energy    2.71413469 # occ.  1.00000000
 
ion      s     py     pz     px    dxy    dyz    dz2    dxz  x2-y2    tot
    1  0.000  0.001  0.000  0.000  0.000  0.000  0.000  0.000  0.000  0.001
    2  0.000  0.000  0.000  0.000  0.113  0.175  0.000  0.054  0.364  0.705
    3  0.000  0.037  0.000  0.012  0.000  0.001  0.000  0.000  0.000  0.051
    4  0.000  0.037  0.000  0.012  0.000  0.001  0.000  0.000  0.000  0.051
tot    0.000  0.076  0.000  0.024  0.113  0.177  0.000  0.055  0.364  0.808
 
band    12 # energy    2.77320064 # occ.  1.00000000
 
ion      s     py     pz     px    dxy    dyz    dz2    dxz  x2-y2    tot
    1  0.062  0.000  0.000  0.000  0.000  0.000  0.036  0.000  0.000  0.098
    2  0.000  0.000  0.013  0.000  0.000  0.000  0.000  0.000  0.000  0.013
    3  0.025  0.000  0.150  0.000  0.000  0.000  0.001  0.000  0.000  0.176
    4  0.025  0.000  0.150  0.000  0.000  0.000  0.001  0.000  0.000  0.176
tot    0.112  0.000  0.313  0.000  0.000  0.000  0.037  0.000  0.000  0.462
 
band    13 # energy    3.30504192 # occ.  1.00000000
 
ion      s     py     pz     px    dxy    dyz    dz2    dxz  x2-y2    tot
    1  0.000  0.000  0.000  0.000  0.000  0.000  0.000  0.000  0.000  0.000
    2  0.000  0.000  0.000  0.000  0.218  0.160  0.000  0.439  0.080  0.896
    3  0.000  0.000  0.000  0.000  0.001  0.000  0.000  0.000  0.000  0.002
    4  0.000  0.000  0.000  0.000  0.001  0.000  0.000  0.000  0.000  0.002
tot    0.000  0.000  0.000  0.001  0.220  0.160  0.000  0.439  0.080  0.900
 
band    14 # energy    3.30504252 # occ.  1.00000000
 
ion      s     py     pz     px    dxy    dyz    dz2    dxz  x2-y2    tot
    1  0.000  0.000  0.000  0.000  0.000  0.000  0.000  0.000  0.000  0.000
    2  0.000  0.000  0.000  0.000  0.080  0.439  0.000  0.160  0.218  0.896
    3  0.000  0.000  0.000  0.000  0.000  0.000  0.000  0.000  0.001  0.002
    4  0.000  0.000  0.000  0.000  0.000  0.000  0.000  0.000  0.001  0.002
tot    0.000  0.001  0.000  0.000  0.080  0.439  0.000  0.160  0.220  0.900
 
band    15 # energy    3.79910307 # occ.  1.00000000
 
ion      s     py     pz     px    dxy    dyz    dz2    dxz  x2-y2    tot
    1  0.000  0.000  0.000  0.000  0.000  0.000  0.000  0.000  0.000  0.000
    2  0.056  0.000  0.000  0.000  0.000  0.000  0.585  0.000  0.000  0.641
    3  0.021  0.000  0.051  0.000  0.000  0.000  0.000  0.000  0.000  0.073
    4  0.021  0.000  0.051  0.000  0.000  0.000  0.000  0.000  0.000  0.073
tot    0.098  0.000  0.103  0.000  0.000  0.000  0.586  0.000  0.000  0.787
 
band    16 # energy    4.51130383 # occ.  1.00000000
 
ion      s     py     pz     px    dxy    dyz    dz2    dxz  x2-y2    tot
    1  0.000  0.000  0.000  0.000  0.113  0.021  0.000  0.073  0.033  0.240
    2  0.000  0.002  0.000  0.008  0.000  0.000  0.000  0.000  0.000  0.010
    3  0.000  0.040  0.000  0.138  0.000  0.000  0.000  0.001  0.000  0.179
    4  0.000  0.040  0.000  0.138  0.000  0.000  0.000  0.001  0.000  0.179
tot    0.000  0.082  0.000  0.284  0.114  0.022  0.000  0.075  0.033  0.609
 
band    17 # energy    4.51130656 # occ.  1.00000000
 
ion      s     py     pz     px    dxy    dyz    dz2    dxz  x2-y2    tot
    1  0.000  0.000  0.000  0.000  0.033  0.073  0.000  0.021  0.113  0.240
    2  0.000  0.008  0.000  0.002  0.000  0.000  0.000  0.000  0.000  0.010
    3  0.000  0.138  0.000  0.040  0.000  0.001  0.000  0.000  0.000  0.179
    4  0.000  0.138  0.000  0.040  0.000  0.001  0.000  0.000  0.000  0.179
tot    0.000  0.284  0.000  0.082  0.033  0.075  0.000  0.022  0.114  0.609
 
band    18 # energy    6.39953389 # occ.  0.97796548
 
ion      s     py     pz     px    dxy    dyz    dz2    dxz  x2-y2    tot
    1  0.000  0.004  0.000  0.012  0.000  0.000  0.000  0.000  0.000  0.015
    2  0.000  0.000  0.000  0.000  0.106  0.020  0.000  0.066  0.032  0.225
    3  0.000  0.051  0.000  0.168  0.000  0.000  0.000  0.000  0.000  0.220
    4  0.000  0.051  0.000  0.168  0.000  0.000  0.000  0.000  0.000  0.220
tot    0.000  0.106  0.000  0.348  0.106  0.020  0.000  0.067  0.032  0.679
 
band    19 # energy    6.39953481 # occ.  0.97796412
 
ion      s     py     pz     px    dxy    dyz    dz2    dxz  x2-y2    tot
    1  0.000  0.012  0.000  0.004  0.000  0.000  0.000  0.000  0.000  0.015
    2  0.000  0.000  0.000  0.000  0.032  0.066  0.000  0.020  0.106  0.225
    3  0.000  0.168  0.000  0.051  0.000  0.000  0.000  0.000  0.000  0.220
    4  0.000  0.168  0.000  0.051  0.000  0.000  0.000  0.000  0.000  0.220
tot    0.000  0.348  0.000  0.106  0.032  0.067  0.000  0.020  0.106  0.679
 
band    20 # energy    6.94044915 # occ.  0.00000000
 
ion      s     py     pz     px    dxy    dyz    dz2    dxz  x2-y2    tot
    1  0.031  0.000  0.000  0.000  0.000  0.000  0.634  0.000  0.000  0.665
    2  0.000  0.000  0.013  0.000  0.000  0.000  0.000  0.000  0.000  0.013
    3  0.020  0.000  0.007  0.000  0.000  0.000  0.006  0.000  0.000  0.033
    4  0.020  0.000  0.007  0.000  0.000  0.000  0.006  0.000  0.000  0.033
tot    0.071  0.000  0.027  0.000  0.000  0.000  0.645  0.000  0.000  0.743
 
band    21 # energy    7.00421103 # occ.  0.00000000
 
ion      s     py     pz     px    dxy    dyz    dz2    dxz  x2-y2    tot
    1  0.000  0.000  0.000  0.000  0.080  0.362  0.000  0.134  0.217  0.794
    2  0.000  0.003  0.000  0.001  0.000  0.000  0.000  0.000  0.000  0.004
    3  0.000  0.000  0.000  0.000  0.002  0.000  0.000  0.000  0.004  0.006
    4  0.000  0.000  0.000  0.000  0.002  0.000  0.000  0.000  0.004  0.006
tot    0.000  0.003  0.000  0.001  0.083  0.363  0.000  0.134  0.225  0.810
 
band    22 # energy    7.00421171 # occ.  0.00000000
 
ion      s     py     pz     px    dxy    dyz    dz2    dxz  x2-y2    tot
    1  0.000  0.000  0.000  0.000  0.217  0.134  0.000  0.362  0.080  0.794
    2  0.000  0.001  0.000  0.003  0.000  0.000  0.000  0.000  0.000  0.004
    3  0.000  0.000  0.000  0.000  0.004  0.000  0.000  0.000  0.002  0.006
    4  0.000  0.000  0.000  0.000  0.004  0.000  0.000  0.000  0.002  0.006
tot    0.000  0.001  0.000  0.003  0.225  0.134  0.000  0.363  0.083  0.810
 
band    23 # energy    8.19912396 # occ.  0.00000000
 
ion      s     py     pz     px    dxy    dyz    dz2    dxz  x2-y2    tot
    1  0.000  0.000  0.000  0.000  0.278  0.065  0.000  0.195  0.092  0.630
    2  0.000  0.005  0.000  0.015  0.000  0.000  0.000  0.000  0.000  0.020
    3  0.000  0.022  0.000  0.065  0.000  0.001  0.000  0.004  0.000  0.092
    4  0.000  0.022  0.000  0.065  0.000  0.001  0.000  0.004  0.000  0.092
tot    0.000  0.048  0.000  0.146  0.279  0.067  0.000  0.203  0.092  0.835
 
band    24 # energy    8.19912567 # occ.  0.00000000
 
ion      s     py     pz     px    dxy    dyz    dz2    dxz  x2-y2    tot
    1  0.000  0.000  0.000  0.000  0.092  0.195  0.000  0.065  0.278  0.630
    2  0.000  0.015  0.000  0.005  0.000  0.000  0.000  0.000  0.000  0.020
    3  0.000  0.065  0.000  0.022  0.000  0.004  0.000  0.001  0.000  0.092
    4  0.000  0.065  0.000  0.022  0.000  0.004  0.000  0.001  0.000  0.092
tot    0.000  0.146  0.000  0.048  0.092  0.203  0.000  0.067  0.279  0.835
 

 k-point    21 :    0.00000000 0.00000000 0.50000000     weight = 0.02500000

band     1 # energy  -44.23125450 # occ.  1.00000000
 
ion      s     py     pz     px    dxy    dyz    dz2    dxz  x2-y2    tot
    1  0.000  0.000  0.000  0.000  0.000  0.000  0.000  0.000  0.000  0.000
    2  0.000  0.247  0.000  0.748  0.000  0.000  0.000  0.000  0.000  0.995
    3  0.000  0.000  0.000  0.000  0.000  0.000  0.000  0.000  0.000  0.000
    4  0.000  0.000  0.000  0.000  0.000  0.000  0.000  0.000  0.000  0.000
tot    0.000  0.247  0.000  0.748  0.000  0.000  0.000  0.000  0.000  0.995
 
band     2 # energy  -44.23125052 # occ.  1.00000000
 
ion      s     py     pz     px    dxy    dyz    dz2    dxz  x2-y2    tot
    1  0.000  0.000  0.000  0.000  0.000  0.000  0.000  0.000  0.000  0.000
    2  0.000  0.748  0.000  0.247  0.000  0.000  0.000  0.000  0.000  0.995
    3  0.000  0.000  0.000  0.000  0.000  0.000  0.000  0.000  0.000  0.000
    4  0.000  0.000  0.000  0.000  0.000  0.000  0.000  0.000  0.000  0.000
tot    0.000  0.748  0.000  0.247  0.000  0.000  0.000  0.000  0.000  0.995
 
band     3 # energy  -44.22829755 # occ.  1.00000000
 
ion      s     py     pz     px    dxy    dyz    dz2    dxz  x2-y2    tot
    1  0.000  0.000  0.000  0.000  0.000  0.000  0.000  0.000  0.000  0.000
    2  0.000  0.000  0.995  0.000  0.000  0.000  0.000  0.000  0.000  0.995
    3  0.000  0.000  0.000  0.000  0.000  0.000  0.000  0.000  0.000  0.000
    4  0.000  0.000  0.000  0.000  0.000  0.000  0.000  0.000  0.000  0.000
tot    0.000  0.000  0.995  0.000  0.000  0.000  0.000  0.000  0.000  0.995
 
band     4 # energy  -39.85062728 # occ.  1.00000000
 
ion      s     py     pz     px    dxy    dyz    dz2    dxz  x2-y2    tot
    1  0.000  0.000  0.995  0.000  0.000  0.000  0.000  0.000  0.000  0.995
    2  0.000  0.000  0.000  0.000  0.000  0.000  0.000  0.000  0.000  0.000
    3  0.000  0.000  0.000  0.000  0.000  0.000  0.000  0.000  0.000  0.000
    4  0.000  0.000  0.000  0.000  0.000  0.000  0.000  0.000  0.000  0.000
tot    0.000  0.000  0.995  0.000  0.000  0.000  0.000  0.000  0.000  0.995
 
band     5 # energy  -39.84360529 # occ.  1.00000000
 
ion      s     py     pz     px    dxy    dyz    dz2    dxz  x2-y2    tot
    1  0.000  0.247  0.000  0.748  0.000  0.000  0.000  0.000  0.000  0.996
    2  0.000  0.000  0.000  0.000  0.000  0.000  0.000  0.000  0.000  0.000
    3  0.000  0.000  0.000  0.000  0.000  0.000  0.000  0.000  0.000  0.000
    4  0.000  0.000  0.000  0.000  0.000  0.000  0.000  0.000  0.000  0.000
tot    0.000  0.247  0.000  0.748  0.000  0.000  0.000  0.000  0.000  0.996
 
band     6 # energy  -39.84359918 # occ.  1.00000000
 
ion      s     py     pz     px    dxy    dyz    dz2    dxz  x2-y2    tot
    1  0.000  0.748  0.000  0.247  0.000  0.000  0.000  0.000  0.000  0.996
    2  0.000  0.000  0.000  0.000  0.000  0.000  0.000  0.000  0.000  0.000
    3  0.000  0.000  0.000  0.000  0.000  0.000  0.000  0.000  0.000  0.000
    4  0.000  0.000  0.000  0.000  0.000  0.000  0.000  0.000  0.000  0.000
tot    0.000  0.748  0.000  0.247  0.000  0.000  0.000  0.000  0.000  0.996
 
band     7 # energy   -5.49221253 # occ.  1.00000000
 
ion      s     py     pz     px    dxy    dyz    dz2    dxz  x2-y2    tot
    1  0.000  0.000  0.005  0.000  0.000  0.000  0.000  0.000  0.000  0.005
    2  0.030  0.000  0.000  0.000  0.000  0.000  0.000  0.000  0.000  0.030
    3  0.288  0.000  0.001  0.000  0.000  0.000  0.000  0.000  0.000  0.290
    4  0.288  0.000  0.001  0.000  0.000  0.000  0.000  0.000  0.000  0.290
tot    0.607  0.000  0.007  0.000  0.000  0.000  0.000  0.000  0.000  0.614
 
band     8 # energy   -5.44636655 # occ.  1.00000000
 
ion      s     py     pz     px    dxy    dyz    dz2    dxz  x2-y2    tot
    1  0.024  0.000  0.000  0.000  0.000  0.000  0.000  0.000  0.000  0.024
    2  0.000  0.000  0.006  0.000  0.000  0.000  0.000  0.000  0.000  0.006
    3  0.292  0.000  0.001  0.000  0.000  0.000  0.000  0.000  0.000  0.294
    4  0.292  0.000  0.001  0.000  0.000  0.000  0.000  0.000  0.000  0.294
tot    0.609  0.000  0.008  0.000  0.000  0.000  0.000  0.000  0.000  0.617
 
band     9 # energy    2.15224808 # occ.  1.00000000
 
ion      s     py     pz     px    dxy    dyz    dz2    dxz  x2-y2    tot
    1  0.000  0.000  0.008  0.000  0.000  0.000  0.000  0.000  0.000  0.008
    2  0.051  0.000  0.000  0.000  0.000  0.000  0.291  0.000  0.000  0.342
    3  0.019  0.000  0.094  0.000  0.000  0.000  0.001  0.000  0.000  0.114
    4  0.019  0.000  0.094  0.000  0.000  0.000  0.001  0.000  0.000  0.114
tot    0.088  0.000  0.197  0.000  0.000  0.000  0.293  0.000  0.000  0.578
 
band    10 # energy    2.71413070 # occ.  1.00000000
 
ion      s     py     pz     px    dxy    dyz    dz2    dxz  x2-y2    tot
    1  0.000  0.000  0.000  0.001  0.000  0.000  0.000  0.000  0.000  0.001
    2  0.000  0.000  0.000  0.000  0.364  0.054  0.000  0.175  0.113  0.705
    3  0.000  0.012  0.000  0.037  0.000  0.000  0.000  0.001  0.000  0.051
    4  0.000  0.012  0.000  0.037  0.000  0.000  0.000  0.001  0.000  0.051
tot    0.000  0.024  0.000  0.076  0.364  0.055  0.000  0.177  0.113  0.808
 
band    11 # energy    2.71413469 # occ.  1.00000000
 
ion      s     py     pz     px    dxy    dyz    dz2    dxz  x2-y2    tot
    1  0.000  0.001  0.000  0.000  0.000  0.000  0.000  0.000  0.000  0.001
    2  0.000  0.000  0.000  0.000  0.113  0.175  0.000  0.054  0.364  0.705
    3  0.000  0.037  0.000  0.012  0.000  0.001  0.000  0.000  0.000  0.051
    4  0.000  0.037  0.000  0.012  0.000  0.001  0.000  0.000  0.000  0.051
tot    0.000  0.076  0.000  0.024  0.113  0.177  0.000  0.055  0.364  0.808
 
band    12 # energy    2.77320064 # occ.  1.00000000
 
ion      s     py     pz     px    dxy    dyz    dz2    dxz  x2-y2    tot
    1  0.062  0.000  0.000  0.000  0.000  0.000  0.036  0.000  0.000  0.098
    2  0.000  0.000  0.013  0.000  0.000  0.000  0.000  0.000  0.000  0.013
    3  0.025  0.000  0.150  0.000  0.000  0.000  0.001  0.000  0.000  0.176
    4  0.025  0.000  0.150  0.000  0.000  0.000  0.001  0.000  0.000  0.176
tot    0.112  0.000  0.313  0.000  0.000  0.000  0.037  0.000  0.000  0.462
 
band    13 # energy    3.30504192 # occ.  1.00000000
 
ion      s     py     pz     px    dxy    dyz    dz2    dxz  x2-y2    tot
    1  0.000  0.000  0.000  0.000  0.000  0.000  0.000  0.000  0.000  0.000
    2  0.000  0.000  0.000  0.000  0.218  0.160  0.000  0.439  0.080  0.896
    3  0.000  0.000  0.000  0.000  0.001  0.000  0.000  0.000  0.000  0.002
    4  0.000  0.000  0.000  0.000  0.001  0.000  0.000  0.000  0.000  0.002
tot    0.000  0.000  0.000  0.001  0.220  0.160  0.000  0.439  0.080  0.900
 
band    14 # energy    3.30504252 # occ.  1.00000000
 
ion      s     py     pz     px    dxy    dyz    dz2    dxz  x2-y2    tot
    1  0.000  0.000  0.000  0.000  0.000  0.000  0.000  0.000  0.000  0.000
    2  0.000  0.000  0.000  0.000  0.080  0.439  0.000  0.160  0.218  0.896
    3  0.000  0.000  0.000  0.000  0.000  0.000  0.000  0.000  0.001  0.002
    4  0.000  0.000  0.000  0.000  0.000  0.000  0.000  0.000  0.001  0.002
tot    0.000  0.001  0.000  0.000  0.080  0.439  0.000  0.160  0.220  0.900
 
band    15 # energy    3.79910307 # occ.  1.00000000
 
ion      s     py     pz     px    dxy    dyz    dz2    dxz  x2-y2    tot
    1  0.000  0.000  0.000  0.000  0.000  0.000  0.000  0.000  0.000  0.000
    2  0.056  0.000  0.000  0.000  0.000  0.000  0.585  0.000  0.000  0.641
    3  0.021  0.000  0.051  0.000  0.000  0.000  0.000  0.000  0.000  0.073
    4  0.021  0.000  0.051  0.000  0.000  0.000  0.000  0.000  0.000  0.073
tot    0.098  0.000  0.103  0.000  0.000  0.000  0.586  0.000  0.000  0.787
 
band    16 # energy    4.51130383 # occ.  1.00000000
 
ion      s     py     pz     px    dxy    dyz    dz2    dxz  x2-y2    tot
    1  0.000  0.000  0.000  0.000  0.113  0.021  0.000  0.073  0.033  0.240
    2  0.000  0.002  0.000  0.008  0.000  0.000  0.000  0.000  0.000  0.010
    3  0.000  0.040  0.000  0.138  0.000  0.000  0.000  0.001  0.000  0.179
    4  0.000  0.040  0.000  0.138  0.000  0.000  0.000  0.001  0.000  0.179
tot    0.000  0.082  0.000  0.284  0.114  0.022  0.000  0.075  0.033  0.609
 
band    17 # energy    4.51130656 # occ.  1.00000000
 
ion      s     py     pz     px    dxy    dyz    dz2    dxz  x2-y2    tot
    1  0.000  0.000  0.000  0.000  0.033  0.073  0.000  0.021  0.113  0.240
    2  0.000  0.008  0.000  0.002  0.000  0.000  0.000  0.000  0.000  0.010
    3  0.000  0.138  0.000  0.040  0.000  0.001  0.000  0.000  0.000  0.179
    4  0.000  0.138  0.000  0.040  0.000  0.001  0.000  0.000  0.000  0.179
tot    0.000  0.284  0.000  0.082  0.033  0.075  0.000  0.022  0.114  0.609
 
band    18 # energy    6.39953389 # occ.  0.97796548
 
ion      s     py     pz     px    dxy    dyz    dz2    dxz  x2-y2    tot
    1  0.000  0.004  0.000  0.012  0.000  0.000  0.000  0.000  0.000  0.015
    2  0.000  0.000  0.000  0.000  0.106  0.020  0.000  0.066  0.032  0.225
    3  0.000  0.051  0.000  0.168  0.000  0.000  0.000  0.000  0.000  0.220
    4  0.000  0.051  0.000  0.168  0.000  0.000  0.000  0.000  0.000  0.220
tot    0.000  0.106  0.000  0.348  0.106  0.020  0.000  0.067  0.032  0.679
 
band    19 # energy    6.39953481 # occ.  0.97796412
 
ion      s     py     pz     px    dxy    dyz    dz2    dxz  x2-y2    tot
    1  0.000  0.012  0.000  0.004  0.000  0.000  0.000  0.000  0.000  0.015
    2  0.000  0.000  0.000  0.000  0.032  0.066  0.000  0.020  0.106  0.225
    3  0.000  0.168  0.000  0.051  0.000  0.000  0.000  0.000  0.000  0.220
    4  0.000  0.168  0.000  0.051  0.000  0.000  0.000  0.000  0.000  0.220
tot    0.000  0.348  0.000  0.106  0.032  0.067  0.000  0.020  0.106  0.679
 
band    20 # energy    6.94044915 # occ.  0.00000000
 
ion      s     py     pz     px    dxy    dyz    dz2    dxz  x2-y2    tot
    1  0.031  0.000  0.000  0.000  0.000  0.000  0.634  0.000  0.000  0.665
    2  0.000  0.000  0.013  0.000  0.000  0.000  0.000  0.000  0.000  0.013
    3  0.020  0.000  0.007  0.000  0.000  0.000  0.006  0.000  0.000  0.033
    4  0.020  0.000  0.007  0.000  0.000  0.000  0.006  0.000  0.000  0.033
tot    0.071  0.000  0.027  0.000  0.000  0.000  0.645  0.000  0.000  0.743
 
band    21 # energy    7.00421103 # occ.  0.00000000
 
ion      s     py     pz     px    dxy    dyz    dz2    dxz  x2-y2    tot
    1  0.000  0.000  0.000  0.000  0.080  0.362  0.000  0.134  0.217  0.794
    2  0.000  0.003  0.000  0.001  0.000  0.000  0.000  0.000  0.000  0.004
    3  0.000  0.000  0.000  0.000  0.002  0.000  0.000  0.000  0.004  0.006
    4  0.000  0.000  0.000  0.000  0.002  0.000  0.000  0.000  0.004  0.006
tot    0.000  0.003  0.000  0.001  0.083  0.363  0.000  0.134  0.225  0.810
 
band    22 # energy    7.00421171 # occ.  0.00000000
 
ion      s     py     pz     px    dxy    dyz    dz2    dxz  x2-y2    tot
    1  0.000  0.000  0.000  0.000  0.217  0.134  0.000  0.362  0.080  0.794
    2  0.000  0.001  0.000  0.003  0.000  0.000  0.000  0.000  0.000  0.004
    3  0.000  0.000  0.000  0.000  0.004  0.000  0.000  0.000  0.002  0.006
    4  0.000  0.000  0.000  0.000  0.004  0.000  0.000  0.000  0.002  0.006
tot    0.000  0.001  0.000  0.003  0.225  0.134  0.000  0.363  0.083  0.810
 
band    23 # energy    8.19912396 # occ.  0.00000000
 
ion      s     py     pz     px    dxy    dyz    dz2    dxz  x2-y2    tot
    1  0.000  0.000  0.000  0.000  0.278  0.065  0.000  0.195  0.092  0.630
    2  0.000  0.005  0.000  0.015  0.000  0.000  0.000  0.000  0.000  0.020
    3  0.000  0.022  0.000  0.065  0.000  0.001  0.000  0.004  0.000  0.092
    4  0.000  0.022  0.000  0.065  0.000  0.001  0.000  0.004  0.000  0.092
tot    0.000  0.048  0.000  0.146  0.279  0.067  0.000  0.203  0.092  0.835
 
band    24 # energy    8.19912567 # occ.  0.00000000
 
ion      s     py     pz     px    dxy    dyz    dz2    dxz  x2-y2    tot
    1  0.000  0.000  0.000  0.000  0.092  0.195  0.000  0.065  0.278  0.630
    2  0.000  0.015  0.000  0.005  0.000  0.000  0.000  0.000  0.000  0.020
    3  0.000  0.065  0.000  0.022  0.000  0.004  0.000  0.001  0.000  0.092
    4  0.000  0.065  0.000  0.022  0.000  0.004  0.000  0.001  0.000  0.092
tot    0.000  0.146  0.000  0.048  0.092  0.203  0.000  0.067  0.279  0.835
 

 k-point    22 :    0.02631579 0.00000000 0.50000000     weight = 0.02500000

band     1 # energy  -44.23126764 # occ.  1.00000000
 
ion      s     py     pz     px    dxy    dyz    dz2    dxz  x2-y2    tot
    1  0.000  0.000  0.000  0.000  0.000  0.000  0.000  0.000  0.000  0.000
    2  0.000  0.141  0.000  0.854  0.000  0.000  0.000  0.000  0.000  0.995
    3  0.000  0.000  0.000  0.000  0.000  0.000  0.000  0.000  0.000  0.000
    4  0.000  0.000  0.000  0.000  0.000  0.000  0.000  0.000  0.000  0.000
tot    0.000  0.141  0.000  0.854  0.000  0.000  0.000  0.000  0.000  0.995
 
band     2 # energy  -44.23125493 # occ.  1.00000000
 
ion      s     py     pz     px    dxy    dyz    dz2    dxz  x2-y2    tot
    1  0.000  0.000  0.000  0.000  0.000  0.000  0.000  0.000  0.000  0.000
    2  0.000  0.854  0.000  0.141  0.000  0.000  0.000  0.000  0.000  0.995
    3  0.000  0.000  0.000  0.000  0.000  0.000  0.000  0.000  0.000  0.000
    4  0.000  0.000  0.000  0.000  0.000  0.000  0.000  0.000  0.000  0.000
tot    0.000  0.854  0.000  0.141  0.000  0.000  0.000  0.000  0.000  0.995
 
band     3 # energy  -44.22830273 # occ.  1.00000000
 
ion      s     py     pz     px    dxy    dyz    dz2    dxz  x2-y2    tot
    1  0.000  0.000  0.000  0.000  0.000  0.000  0.000  0.000  0.000  0.000
    2  0.000  0.000  0.995  0.000  0.000  0.000  0.000  0.000  0.000  0.995
    3  0.000  0.000  0.000  0.000  0.000  0.000  0.000  0.000  0.000  0.000
    4  0.000  0.000  0.000  0.000  0.000  0.000  0.000  0.000  0.000  0.000
tot    0.000  0.000  0.995  0.000  0.000  0.000  0.000  0.000  0.000  0.995
 
band     4 # energy  -39.85063293 # occ.  1.00000000
 
ion      s     py     pz     px    dxy    dyz    dz2    dxz  x2-y2    tot
    1  0.000  0.000  0.995  0.000  0.000  0.000  0.000  0.000  0.000  0.995
    2  0.000  0.000  0.000  0.000  0.000  0.000  0.000  0.000  0.000  0.000
    3  0.000  0.000  0.000  0.000  0.000  0.000  0.000  0.000  0.000  0.000
    4  0.000  0.000  0.000  0.000  0.000  0.000  0.000  0.000  0.000  0.000
tot    0.000  0.000  0.995  0.000  0.000  0.000  0.000  0.000  0.000  0.995
 
band     5 # energy  -39.84362453 # occ.  1.00000000
 
ion      s     py     pz     px    dxy    dyz    dz2    dxz  x2-y2    tot
    1  0.000  0.135  0.000  0.860  0.000  0.000  0.000  0.000  0.000  0.996
    2  0.000  0.000  0.000  0.000  0.000  0.000  0.000  0.000  0.000  0.000
    3  0.000  0.000  0.000  0.000  0.000  0.000  0.000  0.000  0.000  0.000
    4  0.000  0.000  0.000  0.000  0.000  0.000  0.000  0.000  0.000  0.000
tot    0.000  0.135  0.000  0.860  0.000  0.000  0.000  0.000  0.000  0.996
 
band     6 # energy  -39.84360613 # occ.  1.00000000
 
ion      s     py     pz     px    dxy    dyz    dz2    dxz  x2-y2    tot
    1  0.000  0.860  0.000  0.135  0.000  0.000  0.000  0.000  0.000  0.996
    2  0.000  0.000  0.000  0.000  0.000  0.000  0.000  0.000  0.000  0.000
    3  0.000  0.000  0.000  0.000  0.000  0.000  0.000  0.000  0.000  0.000
    4  0.000  0.000  0.000  0.000  0.000  0.000  0.000  0.000  0.000  0.000
tot    0.000  0.860  0.000  0.135  0.000  0.000  0.000  0.000  0.000  0.996
 
band     7 # energy   -5.48772084 # occ.  1.00000000
 
ion      s     py     pz     px    dxy    dyz    dz2    dxz  x2-y2    tot
    1  0.000  0.000  0.005  0.000  0.000  0.000  0.000  0.000  0.000  0.005
    2  0.030  0.000  0.000  0.000  0.000  0.000  0.000  0.000  0.000  0.030
    3  0.288  0.000  0.001  0.000  0.000  0.000  0.000  0.000  0.000  0.290
    4  0.288  0.000  0.001  0.000  0.000  0.000  0.000  0.000  0.000  0.290
tot    0.607  0.000  0.007  0.000  0.000  0.000  0.000  0.000  0.000  0.614
 
band     8 # energy   -5.44211452 # occ.  1.00000000
 
ion      s     py     pz     px    dxy    dyz    dz2    dxz  x2-y2    tot
    1  0.024  0.000  0.000  0.000  0.000  0.000  0.000  0.000  0.000  0.024
    2  0.000  0.000  0.006  0.000  0.000  0.000  0.000  0.000  0.000  0.006
    3  0.293  0.000  0.001  0.000  0.000  0.000  0.000  0.000  0.000  0.294
    4  0.293  0.000  0.001  0.000  0.000  0.000  0.000  0.000  0.000  0.294
tot    0.609  0.000  0.008  0.000  0.000  0.000  0.000  0.000  0.000  0.618
 
band     9 # energy    2.15422885 # occ.  1.00000000
 
ion      s     py     pz     px    dxy    dyz    dz2    dxz  x2-y2    tot
    1  0.000  0.000  0.008  0.000  0.000  0.000  0.000  0.000  0.000  0.008
    2  0.051  0.000  0.000  0.000  0.000  0.000  0.290  0.000  0.000  0.340
    3  0.019  0.000  0.094  0.000  0.000  0.000  0.001  0.000  0.000  0.114
    4  0.019  0.000  0.094  0.000  0.000  0.000  0.001  0.000  0.000  0.114
tot    0.088  0.000  0.197  0.000  0.000  0.000  0.292  0.000  0.000  0.578
 
band    10 # energy    2.63053257 # occ.  1.00000000
 
ion      s     py     pz     px    dxy    dyz    dz2    dxz  x2-y2    tot
    1  0.024  0.000  0.000  0.000  0.000  0.000  0.011  0.000  0.000  0.035
    2  0.000  0.000  0.003  0.000  0.223  0.038  0.000  0.115  0.074  0.453
    3  0.009  0.008  0.054  0.024  0.000  0.000  0.000  0.001  0.000  0.097
    4  0.009  0.008  0.054  0.024  0.000  0.000  0.000  0.001  0.000  0.097
tot    0.043  0.016  0.111  0.049  0.223  0.039  0.011  0.116  0.074  0.682
 
band    11 # energy    2.71492876 # occ.  1.00000000
 
ion      s     py     pz     px    dxy    dyz    dz2    dxz  x2-y2    tot
    1  0.000  0.001  0.000  0.000  0.000  0.000  0.000  0.000  0.000  0.001
    2  0.000  0.000  0.000  0.000  0.118  0.174  0.000  0.058  0.355  0.705
    3  0.000  0.037  0.000  0.012  0.000  0.001  0.000  0.000  0.000  0.051
    4  0.000  0.037  0.000  0.012  0.000  0.001  0.000  0.000  0.000  0.051
tot    0.000  0.075  0.000  0.025  0.119  0.176  0.000  0.059  0.356  0.808
 
band    12 # energy    2.85938377 # occ.  1.00000000
 
ion      s     py     pz     px    dxy    dyz    dz2    dxz  x2-y2    tot
    1  0.038  0.000  0.000  0.001  0.000  0.000  0.025  0.000  0.000  0.065
    2  0.000  0.000  0.009  0.000  0.136  0.018  0.000  0.054  0.045  0.263
    3  0.015  0.004  0.096  0.013  0.000  0.000  0.001  0.000  0.000  0.130
    4  0.015  0.004  0.096  0.013  0.000  0.000  0.001  0.000  0.000  0.130
tot    0.069  0.009  0.202  0.026  0.137  0.018  0.027  0.055  0.046  0.588
 
band    13 # energy    3.30198059 # occ.  1.00000000
 
ion      s     py     pz     px    dxy    dyz    dz2    dxz  x2-y2    tot
    1  0.000  0.000  0.000  0.000  0.000  0.000  0.000  0.000  0.000  0.001
    2  0.000  0.000  0.000  0.000  0.219  0.150  0.000  0.450  0.073  0.893
    3  0.000  0.000  0.000  0.001  0.001  0.000  0.000  0.000  0.000  0.003
    4  0.000  0.000  0.000  0.001  0.001  0.000  0.000  0.000  0.000  0.003
tot    0.000  0.001  0.000  0.002  0.222  0.150  0.000  0.451  0.074  0.899
 
band    14 # energy    3.30282454 # occ.  1.00000000
 
ion      s     py     pz     px    dxy    dyz    dz2    dxz  x2-y2    tot
    1  0.000  0.000  0.000  0.000  0.000  0.000  0.000  0.000  0.000  0.001
    2  0.000  0.000  0.000  0.000  0.075  0.446  0.000  0.148  0.225  0.894
    3  0.000  0.001  0.000  0.000  0.000  0.000  0.000  0.000  0.001  0.002
    4  0.000  0.001  0.000  0.000  0.000  0.000  0.000  0.000  0.001  0.002
tot    0.000  0.002  0.000  0.001  0.076  0.446  0.000  0.148  0.227  0.899
 
band    15 # energy    3.77040865 # occ.  1.00000000
 
ion      s     py     pz     px    dxy    dyz    dz2    dxz  x2-y2    tot
    1  0.000  0.000  0.000  0.000  0.004  0.001  0.000  0.003  0.001  0.008
    2  0.054  0.000  0.000  0.000  0.000  0.000  0.566  0.000  0.000  0.621
    3  0.020  0.002  0.048  0.005  0.000  0.000  0.000  0.000  0.000  0.075
    4  0.020  0.002  0.048  0.005  0.000  0.000  0.000  0.000  0.000  0.075
tot    0.095  0.003  0.095  0.010  0.004  0.001  0.567  0.003  0.001  0.780
 
band    16 # energy    4.51130591 # occ.  1.00000000
 
ion      s     py     pz     px    dxy    dyz    dz2    dxz  x2-y2    tot
    1  0.000  0.000  0.000  0.000  0.036  0.071  0.000  0.024  0.108  0.239
    2  0.000  0.008  0.000  0.003  0.000  0.001  0.000  0.000  0.001  0.013
    3  0.000  0.133  0.000  0.044  0.000  0.001  0.000  0.000  0.000  0.179
    4  0.000  0.133  0.000  0.044  0.000  0.001  0.000  0.000  0.000  0.179
tot    0.000  0.274  0.000  0.091  0.037  0.074  0.000  0.025  0.110  0.610
 
band    17 # energy    4.53019267 # occ.  1.00000000
 
ion      s     py     pz     px    dxy    dyz    dz2    dxz  x2-y2    tot
    1  0.000  0.000  0.001  0.000  0.104  0.022  0.000  0.067  0.035  0.228
    2  0.001  0.003  0.000  0.008  0.001  0.000  0.021  0.001  0.000  0.035
    3  0.000  0.043  0.004  0.128  0.000  0.000  0.000  0.001  0.000  0.176
    4  0.000  0.043  0.004  0.128  0.000  0.000  0.000  0.001  0.000  0.176
tot    0.002  0.088  0.008  0.263  0.105  0.023  0.021  0.069  0.035  0.615
 
band    18 # energy    6.30581294 # occ.  0.99999845
 
ion      s     py     pz     px    dxy    dyz    dz2    dxz  x2-y2    tot
    1  0.004  0.003  0.000  0.010  0.004  0.002  0.027  0.007  0.001  0.059
    2  0.000  0.000  0.002  0.000  0.098  0.021  0.000  0.062  0.033  0.216
    3  0.003  0.049  0.000  0.147  0.000  0.000  0.000  0.000  0.000  0.200
    4  0.003  0.049  0.000  0.147  0.000  0.000  0.000  0.000  0.000  0.200
tot    0.011  0.101  0.002  0.304  0.103  0.023  0.028  0.069  0.034  0.676
 
band    19 # energy    6.37212818 # occ.  0.99735305
 
ion      s     py     pz     px    dxy    dyz    dz2    dxz  x2-y2    tot
    1  0.000  0.011  0.000  0.004  0.002  0.009  0.000  0.003  0.006  0.034
    2  0.000  0.000  0.000  0.000  0.034  0.064  0.000  0.021  0.101  0.220
    3  0.000  0.159  0.000  0.053  0.000  0.000  0.000  0.000  0.000  0.212
    4  0.000  0.159  0.000  0.053  0.000  0.000  0.000  0.000  0.000  0.212
tot    0.000  0.329  0.000  0.110  0.036  0.074  0.000  0.025  0.107  0.679
 
band    20 # energy    6.96918331 # occ.  0.00000000
 
ion      s     py     pz     px    dxy    dyz    dz2    dxz  x2-y2    tot
    1  0.021  0.000  0.000  0.000  0.060  0.033  0.459  0.099  0.020  0.692
    2  0.000  0.000  0.008  0.001  0.001  0.000  0.000  0.001  0.000  0.012
    3  0.013  0.001  0.006  0.004  0.001  0.000  0.004  0.000  0.000  0.029
    4  0.013  0.001  0.006  0.004  0.001  0.000  0.004  0.000  0.000  0.029
tot    0.047  0.003  0.020  0.008  0.063  0.033  0.467  0.100  0.021  0.762
 
band    21 # energy    7.02648106 # occ.  0.00000000
 
ion      s     py     pz     px    dxy    dyz    dz2    dxz  x2-y2    tot
    1  0.000  0.000  0.000  0.000  0.073  0.362  0.000  0.121  0.220  0.776
    2  0.000  0.002  0.000  0.001  0.001  0.002  0.000  0.001  0.003  0.009
    3  0.000  0.005  0.000  0.002  0.001  0.000  0.000  0.000  0.004  0.013
    4  0.000  0.005  0.000  0.002  0.001  0.000  0.000  0.000  0.004  0.013
tot    0.000  0.013  0.000  0.004  0.077  0.365  0.000  0.122  0.230  0.810
 
band    22 # energy    7.03682933 # occ.  0.00000000
 
ion      s     py     pz     px    dxy    dyz    dz2    dxz  x2-y2    tot
    1  0.006  0.000  0.000  0.001  0.160  0.088  0.153  0.265  0.053  0.727
    2  0.000  0.001  0.002  0.002  0.005  0.001  0.000  0.003  0.002  0.015
    3  0.003  0.004  0.002  0.012  0.003  0.000  0.001  0.000  0.001  0.027
    4  0.003  0.004  0.002  0.012  0.003  0.000  0.001  0.000  0.001  0.027
tot    0.013  0.009  0.006  0.026  0.171  0.090  0.155  0.269  0.057  0.795
 
band    23 # energy    8.15059385 # occ.  0.00000000
 
ion      s     py     pz     px    dxy    dyz    dz2    dxz  x2-y2    tot
    1  0.000  0.000  0.001  0.000  0.272  0.065  0.000  0.194  0.091  0.623
    2  0.004  0.005  0.000  0.014  0.000  0.000  0.002  0.000  0.000  0.025
    3  0.002  0.020  0.001  0.060  0.000  0.001  0.000  0.004  0.000  0.089
    4  0.002  0.020  0.001  0.060  0.000  0.001  0.000  0.004  0.000  0.089
tot    0.009  0.045  0.004  0.135  0.273  0.067  0.002  0.202  0.091  0.827
 
band    24 # energy    8.19207795 # occ.  0.00000000
 
ion      s     py     pz     px    dxy    dyz    dz2    dxz  x2-y2    tot
    1  0.000  0.000  0.000  0.000  0.092  0.196  0.000  0.065  0.277  0.631
    2  0.000  0.015  0.000  0.005  0.000  0.000  0.000  0.000  0.000  0.020
    3  0.000  0.065  0.000  0.022  0.000  0.004  0.000  0.001  0.000  0.091
    4  0.000  0.065  0.000  0.022  0.000  0.004  0.000  0.001  0.000  0.091
tot    0.000  0.144  0.000  0.048  0.092  0.204  0.000  0.068  0.277  0.834
 

 k-point    23 :    0.05263158 0.00000000 0.50000000     weight = 0.02500000

band     1 # energy  -44.23127050 # occ.  1.00000000
 
ion      s     py     pz     px    dxy    dyz    dz2    dxz  x2-y2    tot
    1  0.000  0.000  0.000  0.000  0.000  0.000  0.000  0.000  0.000  0.000
    2  0.000  0.102  0.000  0.893  0.000  0.000  0.000  0.000  0.000  0.995
    3  0.000  0.000  0.000  0.000  0.000  0.000  0.000  0.000  0.000  0.000
    4  0.000  0.000  0.000  0.000  0.000  0.000  0.000  0.000  0.000  0.000
tot    0.000  0.102  0.000  0.893  0.000  0.000  0.000  0.000  0.000  0.995
 
band     2 # energy  -44.23126152 # occ.  1.00000000
 
ion      s     py     pz     px    dxy    dyz    dz2    dxz  x2-y2    tot
    1  0.000  0.000  0.000  0.000  0.000  0.000  0.000  0.000  0.000  0.000
    2  0.000  0.893  0.000  0.102  0.000  0.000  0.000  0.000  0.000  0.995
    3  0.000  0.000  0.000  0.000  0.000  0.000  0.000  0.000  0.000  0.000
    4  0.000  0.000  0.000  0.000  0.000  0.000  0.000  0.000  0.000  0.000
tot    0.000  0.893  0.000  0.102  0.000  0.000  0.000  0.000  0.000  0.995
 
band     3 # energy  -44.22829214 # occ.  1.00000000
 
ion      s     py     pz     px    dxy    dyz    dz2    dxz  x2-y2    tot
    1  0.000  0.000  0.000  0.000  0.000  0.000  0.000  0.000  0.000  0.000
    2  0.000  0.000  0.995  0.000  0.000  0.000  0.000  0.000  0.000  0.995
    3  0.000  0.000  0.000  0.000  0.000  0.000  0.000  0.000  0.000  0.000
    4  0.000  0.000  0.000  0.000  0.000  0.000  0.000  0.000  0.000  0.000
tot    0.000  0.000  0.995  0.000  0.000  0.000  0.000  0.000  0.000  0.995
 
band     4 # energy  -39.85061860 # occ.  1.00000000
 
ion      s     py     pz     px    dxy    dyz    dz2    dxz  x2-y2    tot
    1  0.000  0.000  0.995  0.000  0.000  0.000  0.000  0.000  0.000  0.995
    2  0.000  0.000  0.000  0.000  0.000  0.000  0.000  0.000  0.000  0.000
    3  0.000  0.000  0.000  0.000  0.000  0.000  0.000  0.000  0.000  0.000
    4  0.000  0.000  0.000  0.000  0.000  0.000  0.000  0.000  0.000  0.000
tot    0.000  0.000  0.995  0.000  0.000  0.000  0.000  0.000  0.000  0.995
 
band     5 # energy  -39.84363235 # occ.  1.00000000
 
ion      s     py     pz     px    dxy    dyz    dz2    dxz  x2-y2    tot
    1  0.000  0.114  0.000  0.882  0.000  0.000  0.000  0.000  0.000  0.996
    2  0.000  0.000  0.000  0.000  0.000  0.000  0.000  0.000  0.000  0.000
    3  0.000  0.000  0.000  0.000  0.000  0.000  0.000  0.000  0.000  0.000
    4  0.000  0.000  0.000  0.000  0.000  0.000  0.000  0.000  0.000  0.000
tot    0.000  0.114  0.000  0.882  0.000  0.000  0.000  0.000  0.000  0.996
 
band     6 # energy  -39.84361721 # occ.  1.00000000
 
ion      s     py     pz     px    dxy    dyz    dz2    dxz  x2-y2    tot
    1  0.000  0.882  0.000  0.114  0.000  0.000  0.000  0.000  0.000  0.996
    2  0.000  0.000  0.000  0.000  0.000  0.000  0.000  0.000  0.000  0.000
    3  0.000  0.000  0.000  0.000  0.000  0.000  0.000  0.000  0.000  0.000
    4  0.000  0.000  0.000  0.000  0.000  0.000  0.000  0.000  0.000  0.000
tot    0.000  0.882  0.000  0.114  0.000  0.000  0.000  0.000  0.000  0.996
 
band     7 # energy   -5.47429874 # occ.  1.00000000
 
ion      s     py     pz     px    dxy    dyz    dz2    dxz  x2-y2    tot
    1  0.000  0.000  0.005  0.000  0.000  0.000  0.000  0.000  0.000  0.005
    2  0.030  0.000  0.000  0.000  0.000  0.000  0.000  0.000  0.000  0.030
    3  0.289  0.000  0.001  0.000  0.000  0.000  0.000  0.000  0.000  0.290
    4  0.289  0.000  0.001  0.000  0.000  0.000  0.000  0.000  0.000  0.290
tot    0.608  0.000  0.007  0.000  0.000  0.000  0.000  0.000  0.000  0.615
 
band     8 # energy   -5.42941057 # occ.  1.00000000
 
ion      s     py     pz     px    dxy    dyz    dz2    dxz  x2-y2    tot
    1  0.023  0.000  0.000  0.000  0.000  0.000  0.000  0.000  0.000  0.023
    2  0.000  0.000  0.006  0.000  0.000  0.000  0.000  0.000  0.000  0.006
    3  0.293  0.000  0.001  0.000  0.000  0.000  0.000  0.000  0.000  0.294
    4  0.293  0.000  0.001  0.000  0.000  0.000  0.000  0.000  0.000  0.294
tot    0.610  0.000  0.008  0.000  0.000  0.000  0.000  0.000  0.000  0.618
 
band     9 # energy    2.15984892 # occ.  1.00000000
 
ion      s     py     pz     px    dxy    dyz    dz2    dxz  x2-y2    tot
    1  0.000  0.000  0.008  0.000  0.001  0.000  0.000  0.001  0.000  0.010
    2  0.052  0.000  0.000  0.000  0.000  0.000  0.284  0.000  0.000  0.336
    3  0.019  0.000  0.095  0.000  0.000  0.000  0.001  0.000  0.000  0.115
    4  0.019  0.000  0.095  0.000  0.000  0.000  0.001  0.000  0.000  0.115
tot    0.090  0.000  0.197  0.001  0.001  0.000  0.286  0.001  0.000  0.576
 
band    10 # energy    2.52587532 # occ.  1.00000000
 
ion      s     py     pz     px    dxy    dyz    dz2    dxz  x2-y2    tot
    1  0.029  0.000  0.000  0.000  0.000  0.000  0.010  0.000  0.000  0.039
    2  0.000  0.000  0.003  0.000  0.199  0.036  0.000  0.108  0.066  0.412
    3  0.011  0.008  0.061  0.023  0.000  0.000  0.000  0.000  0.000  0.104
    4  0.011  0.008  0.061  0.023  0.000  0.000  0.000  0.000  0.000  0.104
tot    0.051  0.016  0.125  0.047  0.199  0.036  0.010  0.109  0.066  0.660
 
band    11 # energy    2.71723495 # occ.  1.00000000
 
ion      s     py     pz     px    dxy    dyz    dz2    dxz  x2-y2    tot
    1  0.000  0.001  0.000  0.000  0.000  0.000  0.000  0.000  0.000  0.001
    2  0.000  0.000  0.000  0.000  0.116  0.179  0.000  0.060  0.349  0.704
    3  0.000  0.037  0.000  0.012  0.000  0.001  0.000  0.000  0.000  0.051
    4  0.000  0.037  0.000  0.012  0.000  0.001  0.000  0.000  0.000  0.051
tot    0.000  0.075  0.000  0.025  0.116  0.181  0.000  0.060  0.349  0.808
 
band    12 # energy    2.97140240 # occ.  1.00000000
 
ion      s     py     pz     px    dxy    dyz    dz2    dxz  x2-y2    tot
    1  0.033  0.000  0.000  0.001  0.000  0.000  0.026  0.000  0.000  0.061
    2  0.000  0.000  0.010  0.000  0.168  0.016  0.000  0.049  0.056  0.299
    3  0.013  0.005  0.089  0.014  0.000  0.000  0.001  0.001  0.000  0.123
    4  0.013  0.005  0.089  0.014  0.000  0.000  0.001  0.001  0.000  0.123
tot    0.060  0.010  0.187  0.030  0.168  0.017  0.028  0.050  0.056  0.606
 
band    13 # energy    3.29150194 # occ.  1.00000000
 
ion      s     py     pz     px    dxy    dyz    dz2    dxz  x2-y2    tot
    1  0.000  0.000  0.000  0.000  0.001  0.000  0.000  0.000  0.000  0.002
    2  0.000  0.000  0.000  0.000  0.205  0.151  0.003  0.452  0.068  0.879
    3  0.000  0.001  0.001  0.002  0.001  0.000  0.000  0.000  0.000  0.005
    4  0.000  0.001  0.001  0.002  0.001  0.000  0.000  0.000  0.000  0.005
tot    0.001  0.002  0.001  0.005  0.208  0.151  0.003  0.452  0.069  0.892
 
band    14 # energy    3.29640449 # occ.  1.00000000
 
ion      s     py     pz     px    dxy    dyz    dz2    dxz  x2-y2    tot
    1  0.000  0.000  0.000  0.000  0.000  0.000  0.000  0.000  0.000  0.001
    2  0.000  0.000  0.000  0.000  0.077  0.435  0.000  0.145  0.231  0.888
    3  0.000  0.002  0.000  0.001  0.000  0.000  0.000  0.000  0.001  0.004
    4  0.000  0.002  0.000  0.001  0.000  0.000  0.000  0.000  0.001  0.004
tot    0.000  0.004  0.000  0.001  0.078  0.436  0.000  0.145  0.233  0.896
 
band    15 # energy    3.69519564 # occ.  1.00000000
 
ion      s     py     pz     px    dxy    dyz    dz2    dxz  x2-y2    tot
    1  0.000  0.000  0.000  0.000  0.011  0.003  0.000  0.008  0.004  0.024
    2  0.050  0.000  0.000  0.000  0.002  0.002  0.525  0.005  0.001  0.584
    3  0.019  0.005  0.039  0.015  0.000  0.000  0.000  0.000  0.000  0.079
    4  0.019  0.005  0.039  0.015  0.000  0.000  0.000  0.000  0.000  0.079
tot    0.088  0.010  0.078  0.030  0.013  0.004  0.526  0.012  0.004  0.766
 
band    16 # energy    4.51107962 # occ.  1.00000000
 
ion      s     py     pz     px    dxy    dyz    dz2    dxz  x2-y2    tot
    1  0.000  0.000  0.000  0.000  0.035  0.072  0.000  0.024  0.105  0.236
    2  0.000  0.008  0.000  0.003  0.001  0.004  0.000  0.001  0.003  0.019
    3  0.000  0.132  0.000  0.044  0.000  0.001  0.000  0.000  0.000  0.178
    4  0.000  0.132  0.000  0.044  0.000  0.001  0.000  0.000  0.000  0.178
tot    0.000  0.273  0.000  0.091  0.036  0.078  0.000  0.026  0.109  0.612
 
band    17 # energy    4.57778013 # occ.  1.00000000
 
ion      s     py     pz     px    dxy    dyz    dz2    dxz  x2-y2    tot
    1  0.000  0.000  0.002  0.000  0.090  0.019  0.000  0.057  0.030  0.198
    2  0.004  0.003  0.000  0.008  0.002  0.001  0.066  0.003  0.001  0.088
    3  0.001  0.039  0.013  0.116  0.000  0.000  0.000  0.001  0.000  0.170
    4  0.001  0.039  0.013  0.116  0.000  0.000  0.000  0.001  0.000  0.170
tot    0.006  0.080  0.028  0.241  0.093  0.021  0.066  0.062  0.031  0.628
 
band    18 # energy    6.09695353 # occ.  1.00000000
 
ion      s     py     pz     px    dxy    dyz    dz2    dxz  x2-y2    tot
    1  0.010  0.003  0.000  0.009  0.009  0.004  0.045  0.013  0.003  0.096
    2  0.000  0.000  0.006  0.001  0.096  0.020  0.000  0.061  0.032  0.216
    3  0.008  0.042  0.000  0.126  0.000  0.000  0.001  0.001  0.000  0.178
    4  0.008  0.042  0.000  0.126  0.000  0.000  0.001  0.001  0.000  0.178
tot    0.025  0.087  0.006  0.261  0.106  0.025  0.047  0.075  0.035  0.668
 
band    19 # energy    6.30087734 # occ.  0.99999922
 
ion      s     py     pz     px    dxy    dyz    dz2    dxz  x2-y2    tot
    1  0.000  0.011  0.000  0.004  0.006  0.025  0.000  0.008  0.017  0.069
    2  0.000  0.001  0.000  0.000  0.032  0.062  0.000  0.021  0.095  0.212
    3  0.000  0.148  0.000  0.049  0.000  0.001  0.000  0.000  0.001  0.198
    4  0.000  0.148  0.000  0.049  0.000  0.001  0.000  0.000  0.001  0.198
tot    0.000  0.307  0.000  0.102  0.038  0.088  0.000  0.029  0.113  0.678
 
band    20 # energy    6.97146462 # occ.  0.00000000
 
ion      s     py     pz     px    dxy    dyz    dz2    dxz  x2-y2    tot
    1  0.012  0.000  0.000  0.000  0.131  0.071  0.265  0.214  0.044  0.737
    2  0.000  0.001  0.005  0.002  0.000  0.000  0.000  0.000  0.000  0.007
    3  0.007  0.000  0.003  0.001  0.003  0.000  0.002  0.000  0.001  0.018
    4  0.007  0.000  0.003  0.001  0.003  0.000  0.002  0.000  0.001  0.018
tot    0.027  0.001  0.012  0.003  0.136  0.072  0.269  0.215  0.045  0.780
 
band    21 # energy    7.08257495 # occ.  0.00000000
 
ion      s     py     pz     px    dxy    dyz    dz2    dxz  x2-y2    tot
    1  0.000  0.001  0.000  0.000  0.072  0.343  0.000  0.114  0.215  0.745
    2  0.000  0.002  0.000  0.001  0.002  0.005  0.000  0.002  0.007  0.018
    3  0.000  0.015  0.000  0.005  0.001  0.000  0.000  0.000  0.004  0.025
    4  0.000  0.015  0.000  0.005  0.001  0.000  0.000  0.000  0.004  0.025
tot    0.000  0.032  0.000  0.011  0.076  0.348  0.000  0.116  0.229  0.813
 
band    22 # energy    7.14941739 # occ.  0.00000000
 
ion      s     py     pz     px    dxy    dyz    dz2    dxz  x2-y2    tot
    1  0.010  0.001  0.000  0.002  0.087  0.047  0.342  0.140  0.029  0.657
    2  0.000  0.000  0.003  0.000  0.011  0.002  0.000  0.006  0.004  0.026
    3  0.005  0.010  0.006  0.029  0.001  0.000  0.002  0.000  0.000  0.053
    4  0.005  0.010  0.006  0.029  0.001  0.000  0.002  0.000  0.000  0.053
tot    0.020  0.020  0.015  0.060  0.100  0.049  0.347  0.146  0.033  0.790
 
band    23 # energy    8.02738196 # occ.  0.00000000
 
ion      s     py     pz     px    dxy    dyz    dz2    dxz  x2-y2    tot
    1  0.000  0.000  0.004  0.000  0.262  0.065  0.000  0.196  0.087  0.615
    2  0.012  0.004  0.000  0.013  0.000  0.000  0.005  0.001  0.000  0.036
    3  0.007  0.016  0.004  0.049  0.000  0.001  0.000  0.004  0.000  0.082
    4  0.007  0.016  0.004  0.049  0.000  0.001  0.000  0.004  0.000  0.082
tot    0.027  0.037  0.011  0.111  0.262  0.068  0.006  0.205  0.087  0.815
 
band    24 # energy    8.17154438 # occ.  0.00000000
 
ion      s     py     pz     px    dxy    dyz    dz2    dxz  x2-y2    tot
    1  0.000  0.000  0.000  0.000  0.092  0.199  0.000  0.066  0.275  0.633
    2  0.000  0.015  0.000  0.005  0.000  0.001  0.000  0.000  0.000  0.021
    3  0.000  0.063  0.000  0.021  0.000  0.004  0.000  0.001  0.000  0.089
    4  0.000  0.063  0.000  0.021  0.000  0.004  0.000  0.001  0.000  0.089
tot    0.000  0.141  0.000  0.047  0.092  0.208  0.000  0.069  0.276  0.833
 

 k-point    24 :    0.07894737 0.00000000 0.50000000     weight = 0.02500000

band     1 # energy  -44.23129057 # occ.  1.00000000
 
ion      s     py     pz     px    dxy    dyz    dz2    dxz  x2-y2    tot
    1  0.000  0.000  0.000  0.000  0.000  0.000  0.000  0.000  0.000  0.000
    2  0.000  0.201  0.000  0.794  0.000  0.000  0.000  0.000  0.000  0.995
    3  0.000  0.000  0.000  0.000  0.000  0.000  0.000  0.000  0.000  0.000
    4  0.000  0.000  0.000  0.000  0.000  0.000  0.000  0.000  0.000  0.000
tot    0.000  0.201  0.000  0.794  0.000  0.000  0.000  0.000  0.000  0.995
 
band     2 # energy  -44.23126025 # occ.  1.00000000
 
ion      s     py     pz     px    dxy    dyz    dz2    dxz  x2-y2    tot
    1  0.000  0.000  0.000  0.000  0.000  0.000  0.000  0.000  0.000  0.000
    2  0.000  0.794  0.000  0.201  0.000  0.000  0.000  0.000  0.000  0.995
    3  0.000  0.000  0.000  0.000  0.000  0.000  0.000  0.000  0.000  0.000
    4  0.000  0.000  0.000  0.000  0.000  0.000  0.000  0.000  0.000  0.000
tot    0.000  0.794  0.000  0.201  0.000  0.000  0.000  0.000  0.000  0.995
 
band     3 # energy  -44.22828611 # occ.  1.00000000
 
ion      s     py     pz     px    dxy    dyz    dz2    dxz  x2-y2    tot
    1  0.000  0.000  0.000  0.000  0.000  0.000  0.000  0.000  0.000  0.000
    2  0.000  0.000  0.995  0.000  0.000  0.000  0.000  0.000  0.000  0.995
    3  0.000  0.000  0.000  0.000  0.000  0.000  0.000  0.000  0.000  0.000
    4  0.000  0.000  0.000  0.000  0.000  0.000  0.000  0.000  0.000  0.000
tot    0.000  0.000  0.995  0.000  0.000  0.000  0.000  0.000  0.000  0.995
 
band     4 # energy  -39.85060834 # occ.  1.00000000
 
ion      s     py     pz     px    dxy    dyz    dz2    dxz  x2-y2    tot
    1  0.000  0.000  0.995  0.000  0.000  0.000  0.000  0.000  0.000  0.995
    2  0.000  0.000  0.000  0.000  0.000  0.000  0.000  0.000  0.000  0.000
    3  0.000  0.000  0.000  0.000  0.000  0.000  0.000  0.000  0.000  0.000
    4  0.000  0.000  0.000  0.000  0.000  0.000  0.000  0.000  0.000  0.000
tot    0.000  0.000  0.995  0.000  0.000  0.000  0.000  0.000  0.000  0.995
 
band     5 # energy  -39.84366362 # occ.  1.00000000
 
ion      s     py     pz     px    dxy    dyz    dz2    dxz  x2-y2    tot
    1  0.000  0.203  0.000  0.793  0.000  0.000  0.000  0.000  0.000  0.996
    2  0.000  0.000  0.000  0.000  0.000  0.000  0.000  0.000  0.000  0.000
    3  0.000  0.000  0.000  0.000  0.000  0.000  0.000  0.000  0.000  0.000
    4  0.000  0.000  0.000  0.000  0.000  0.000  0.000  0.000  0.000  0.000
tot    0.000  0.203  0.000  0.793  0.000  0.000  0.000  0.000  0.000  0.996
 
band     6 # energy  -39.84361574 # occ.  1.00000000
 
ion      s     py     pz     px    dxy    dyz    dz2    dxz  x2-y2    tot
    1  0.000  0.793  0.000  0.203  0.000  0.000  0.000  0.000  0.000  0.996
    2  0.000  0.000  0.000  0.000  0.000  0.000  0.000  0.000  0.000  0.000
    3  0.000  0.000  0.000  0.000  0.000  0.000  0.000  0.000  0.000  0.000
    4  0.000  0.000  0.000  0.000  0.000  0.000  0.000  0.000  0.000  0.000
tot    0.000  0.793  0.000  0.203  0.000  0.000  0.000  0.000  0.000  0.996
 
band     7 # energy   -5.45213746 # occ.  1.00000000
 
ion      s     py     pz     px    dxy    dyz    dz2    dxz  x2-y2    tot
    1  0.000  0.000  0.005  0.000  0.000  0.000  0.000  0.000  0.000  0.005
    2  0.029  0.000  0.000  0.000  0.000  0.000  0.000  0.000  0.000  0.029
    3  0.290  0.000  0.001  0.000  0.000  0.000  0.000  0.000  0.000  0.291
    4  0.290  0.000  0.001  0.000  0.000  0.000  0.000  0.000  0.000  0.291
tot    0.609  0.000  0.007  0.000  0.000  0.000  0.000  0.000  0.000  0.617
 
band     8 # energy   -5.40844252 # occ.  1.00000000
 
ion      s     py     pz     px    dxy    dyz    dz2    dxz  x2-y2    tot
    1  0.023  0.000  0.000  0.000  0.000  0.000  0.000  0.000  0.000  0.023
    2  0.000  0.000  0.006  0.000  0.000  0.000  0.000  0.000  0.000  0.006
    3  0.294  0.000  0.001  0.000  0.000  0.000  0.000  0.000  0.000  0.295
    4  0.294  0.000  0.001  0.000  0.000  0.000  0.000  0.000  0.000  0.295
tot    0.611  0.000  0.008  0.000  0.000  0.000  0.000  0.000  0.000  0.620
 
band     9 # energy    2.16803872 # occ.  1.00000000
 
ion      s     py     pz     px    dxy    dyz    dz2    dxz  x2-y2    tot
    1  0.000  0.000  0.007  0.000  0.002  0.001  0.000  0.002  0.001  0.012
    2  0.053  0.000  0.000  0.000  0.000  0.000  0.273  0.000  0.000  0.327
    3  0.019  0.000  0.096  0.001  0.000  0.000  0.001  0.000  0.000  0.117
    4  0.019  0.000  0.096  0.001  0.000  0.000  0.001  0.000  0.000  0.117
tot    0.092  0.001  0.198  0.003  0.002  0.001  0.275  0.002  0.001  0.574
 
band    10 # energy    2.42253083 # occ.  1.00000000
 
ion      s     py     pz     px    dxy    dyz    dz2    dxz  x2-y2    tot
    1  0.031  0.000  0.000  0.000  0.000  0.000  0.008  0.000  0.000  0.040
    2  0.000  0.000  0.002  0.000  0.190  0.035  0.000  0.106  0.063  0.397
    3  0.012  0.008  0.062  0.024  0.000  0.000  0.000  0.000  0.000  0.107
    4  0.012  0.008  0.062  0.024  0.000  0.000  0.000  0.000  0.000  0.107
tot    0.054  0.016  0.127  0.049  0.190  0.036  0.009  0.107  0.063  0.651
 
band    11 # energy    2.72078379 # occ.  1.00000000
 
ion      s     py     pz     px    dxy    dyz    dz2    dxz  x2-y2    tot
    1  0.000  0.001  0.000  0.000  0.000  0.000  0.000  0.000  0.000  0.002
    2  0.000  0.000  0.000  0.000  0.113  0.189  0.000  0.063  0.338  0.702
    3  0.000  0.038  0.000  0.013  0.000  0.001  0.000  0.000  0.000  0.052
    4  0.000  0.038  0.000  0.013  0.000  0.001  0.000  0.000  0.000  0.052
tot    0.000  0.076  0.000  0.025  0.113  0.191  0.000  0.064  0.338  0.807
 
band    12 # energy    3.08524520 # occ.  1.00000000
 
ion      s     py     pz     px    dxy    dyz    dz2    dxz  x2-y2    tot
    1  0.030  0.000  0.000  0.001  0.000  0.000  0.029  0.000  0.000  0.060
    2  0.000  0.000  0.011  0.000  0.199  0.009  0.000  0.028  0.066  0.313
    3  0.012  0.005  0.086  0.015  0.000  0.000  0.001  0.001  0.000  0.119
    4  0.012  0.005  0.086  0.015  0.000  0.000  0.001  0.001  0.000  0.119
tot    0.054  0.010  0.183  0.031  0.199  0.010  0.030  0.029  0.066  0.612
 
band    13 # energy    3.26847101 # occ.  1.00000000
 
ion      s     py     pz     px    dxy    dyz    dz2    dxz  x2-y2    tot
    1  0.000  0.000  0.000  0.001  0.002  0.000  0.001  0.001  0.001  0.006
    2  0.001  0.000  0.000  0.000  0.167  0.148  0.021  0.443  0.056  0.835
    3  0.001  0.002  0.002  0.007  0.001  0.000  0.000  0.000  0.000  0.015
    4  0.001  0.002  0.002  0.007  0.001  0.000  0.000  0.000  0.000  0.015
tot    0.004  0.005  0.005  0.015  0.171  0.148  0.022  0.444  0.057  0.871
 
band    14 # energy    3.28646444 # occ.  1.00000000
 
ion      s     py     pz     px    dxy    dyz    dz2    dxz  x2-y2    tot
    1  0.000  0.000  0.000  0.000  0.000  0.001  0.000  0.000  0.001  0.002
    2  0.000  0.000  0.000  0.000  0.080  0.418  0.000  0.139  0.240  0.878
    3  0.000  0.003  0.000  0.001  0.000  0.000  0.000  0.000  0.001  0.006
    4  0.000  0.003  0.000  0.001  0.000  0.000  0.000  0.000  0.001  0.006
tot    0.000  0.007  0.000  0.002  0.081  0.419  0.000  0.140  0.243  0.891
 
band    15 # energy    3.59754752 # occ.  1.00000000
 
ion      s     py     pz     px    dxy    dyz    dz2    dxz  x2-y2    tot
    1  0.000  0.000  0.000  0.000  0.015  0.004  0.000  0.011  0.005  0.035
    2  0.044  0.000  0.000  0.001  0.010  0.010  0.474  0.029  0.003  0.571
    3  0.017  0.007  0.030  0.022  0.000  0.000  0.001  0.000  0.000  0.078
    4  0.017  0.007  0.030  0.022  0.000  0.000  0.001  0.000  0.000  0.078
tot    0.079  0.015  0.060  0.045  0.026  0.013  0.476  0.040  0.009  0.761
 
band    16 # energy    4.50993798 # occ.  1.00000000
 
ion      s     py     pz     px    dxy    dyz    dz2    dxz  x2-y2    tot
    1  0.000  0.000  0.000  0.000  0.033  0.073  0.000  0.024  0.100  0.232
    2  0.000  0.008  0.000  0.003  0.002  0.008  0.000  0.003  0.006  0.030
    3  0.000  0.131  0.000  0.044  0.000  0.001  0.000  0.000  0.000  0.176
    4  0.000  0.131  0.000  0.044  0.000  0.001  0.000  0.000  0.000  0.176
tot    0.000  0.271  0.000  0.090  0.036  0.083  0.000  0.028  0.107  0.615
 
band    17 # energy    4.63689593 # occ.  1.00000000
 
ion      s     py     pz     px    dxy    dyz    dz2    dxz  x2-y2    tot
    1  0.000  0.000  0.004  0.000  0.074  0.015  0.000  0.046  0.025  0.164
    2  0.006  0.003  0.000  0.008  0.005  0.002  0.113  0.005  0.002  0.144
    3  0.002  0.035  0.023  0.105  0.000  0.000  0.000  0.001  0.000  0.165
    4  0.002  0.035  0.023  0.105  0.000  0.000  0.000  0.001  0.000  0.165
tot    0.009  0.073  0.050  0.218  0.079  0.018  0.113  0.053  0.026  0.639
 
band    18 # energy    5.84348561 # occ.  1.00000000
 
ion      s     py     pz     px    dxy    dyz    dz2    dxz  x2-y2    tot
    1  0.014  0.003  0.000  0.008  0.011  0.005  0.045  0.014  0.004  0.104
    2  0.000  0.000  0.008  0.001  0.100  0.022  0.000  0.065  0.033  0.230
    3  0.011  0.037  0.000  0.112  0.000  0.000  0.001  0.001  0.000  0.163
    4  0.011  0.037  0.000  0.112  0.000  0.000  0.001  0.001  0.000  0.163
tot    0.036  0.078  0.009  0.233  0.112  0.027  0.048  0.081  0.037  0.660
 
band    19 # energy    6.20505214 # occ.  1.00000000
 
ion      s     py     pz     px    dxy    dyz    dz2    dxz  x2-y2    tot
    1  0.000  0.010  0.000  0.003  0.009  0.036  0.000  0.012  0.026  0.096
    2  0.000  0.002  0.000  0.001  0.030  0.063  0.000  0.021  0.090  0.206
    3  0.000  0.138  0.000  0.046  0.000  0.001  0.000  0.000  0.001  0.186
    4  0.000  0.138  0.000  0.046  0.000  0.001  0.000  0.000  0.001  0.186
tot    0.000  0.288  0.000  0.096  0.039  0.100  0.000  0.033  0.117  0.674
 
band    20 # energy    6.96003682 # occ.  0.00000000
 
ion      s     py     pz     px    dxy    dyz    dz2    dxz  x2-y2    tot
    1  0.011  0.000  0.000  0.000  0.146  0.077  0.225  0.231  0.049  0.739
    2  0.001  0.001  0.004  0.002  0.000  0.000  0.000  0.000  0.000  0.008
    3  0.006  0.000  0.003  0.000  0.003  0.000  0.002  0.000  0.001  0.016
    4  0.006  0.000  0.003  0.000  0.003  0.000  0.002  0.000  0.001  0.016
tot    0.024  0.001  0.010  0.003  0.152  0.077  0.229  0.232  0.051  0.780
 
band    21 # energy    7.15397094 # occ.  0.00000000
 
ion      s     py     pz     px    dxy    dyz    dz2    dxz  x2-y2    tot
    1  0.000  0.002  0.000  0.001  0.072  0.326  0.000  0.109  0.216  0.725
    2  0.000  0.001  0.000  0.000  0.004  0.007  0.000  0.002  0.011  0.025
    3  0.000  0.022  0.000  0.007  0.001  0.000  0.000  0.000  0.003  0.034
    4  0.000  0.022  0.000  0.007  0.001  0.000  0.000  0.000  0.003  0.034
tot    0.000  0.047  0.000  0.016  0.078  0.334  0.000  0.111  0.233  0.818
 
band    22 # energy    7.26734111 # occ.  0.00000000
 
ion      s     py     pz     px    dxy    dyz    dz2    dxz  x2-y2    tot
    1  0.008  0.001  0.000  0.003  0.076  0.037  0.400  0.111  0.025  0.660
    2  0.000  0.000  0.001  0.000  0.011  0.002  0.000  0.006  0.004  0.024
    3  0.003  0.011  0.008  0.033  0.001  0.000  0.002  0.000  0.000  0.059
    4  0.003  0.011  0.008  0.033  0.001  0.000  0.002  0.000  0.000  0.059
tot    0.015  0.023  0.018  0.070  0.088  0.039  0.404  0.117  0.029  0.803
 
band    23 # energy    7.86973024 # occ.  0.00000000
 
ion      s     py     pz     px    dxy    dyz    dz2    dxz  x2-y2    tot
    1  0.000  0.000  0.005  0.000  0.250  0.070  0.000  0.209  0.083  0.616
    2  0.021  0.004  0.000  0.012  0.001  0.000  0.007  0.001  0.000  0.046
    3  0.012  0.012  0.006  0.037  0.000  0.001  0.001  0.004  0.000  0.072
    4  0.012  0.012  0.006  0.037  0.000  0.001  0.001  0.004  0.000  0.072
tot    0.045  0.028  0.016  0.085  0.251  0.073  0.008  0.218  0.084  0.807
 
band    24 # energy    8.13921727 # occ.  0.00000000
 
ion      s     py     pz     px    dxy    dyz    dz2    dxz  x2-y2    tot
    1  0.000  0.001  0.000  0.000  0.090  0.206  0.000  0.069  0.271  0.637
    2  0.000  0.015  0.000  0.005  0.000  0.002  0.000  0.001  0.001  0.023
    3  0.000  0.060  0.000  0.020  0.000  0.004  0.000  0.001  0.000  0.086
    4  0.000  0.060  0.000  0.020  0.000  0.004  0.000  0.001  0.000  0.086
tot    0.000  0.136  0.000  0.045  0.091  0.215  0.000  0.072  0.272  0.831
 

 k-point    25 :    0.10526316 0.00000000 0.50000000     weight = 0.02500000

band     1 # energy  -44.23133710 # occ.  1.00000000
 
ion      s     py     pz     px    dxy    dyz    dz2    dxz  x2-y2    tot
    1  0.000  0.000  0.000  0.000  0.000  0.000  0.000  0.000  0.000  0.000
    2  0.000  0.228  0.000  0.767  0.000  0.000  0.000  0.000  0.000  0.995
    3  0.000  0.000  0.000  0.000  0.000  0.000  0.000  0.000  0.000  0.000
    4  0.000  0.000  0.000  0.000  0.000  0.000  0.000  0.000  0.000  0.000
tot    0.000  0.228  0.000  0.767  0.000  0.000  0.000  0.000  0.000  0.995
 
band     2 # energy  -44.23126564 # occ.  1.00000000
 
ion      s     py     pz     px    dxy    dyz    dz2    dxz  x2-y2    tot
    1  0.000  0.000  0.000  0.000  0.000  0.000  0.000  0.000  0.000  0.000
    2  0.000  0.767  0.000  0.228  0.000  0.000  0.000  0.000  0.000  0.995
    3  0.000  0.000  0.000  0.000  0.000  0.000  0.000  0.000  0.000  0.000
    4  0.000  0.000  0.000  0.000  0.000  0.000  0.000  0.000  0.000  0.000
tot    0.000  0.767  0.000  0.228  0.000  0.000  0.000  0.000  0.000  0.995
 
band     3 # energy  -44.22827843 # occ.  1.00000000
 
ion      s     py     pz     px    dxy    dyz    dz2    dxz  x2-y2    tot
    1  0.000  0.000  0.000  0.000  0.000  0.000  0.000  0.000  0.000  0.000
    2  0.000  0.000  0.995  0.000  0.000  0.000  0.000  0.000  0.000  0.995
    3  0.000  0.000  0.000  0.000  0.000  0.000  0.000  0.000  0.000  0.000
    4  0.000  0.000  0.000  0.000  0.000  0.000  0.000  0.000  0.000  0.000
tot    0.000  0.000  0.995  0.000  0.000  0.000  0.000  0.000  0.000  0.995
 
band     4 # energy  -39.85059620 # occ.  1.00000000
 
ion      s     py     pz     px    dxy    dyz    dz2    dxz  x2-y2    tot
    1  0.000  0.000  0.995  0.000  0.000  0.000  0.000  0.000  0.000  0.995
    2  0.000  0.000  0.000  0.000  0.000  0.000  0.000  0.000  0.000  0.000
    3  0.000  0.000  0.000  0.000  0.000  0.000  0.000  0.000  0.000  0.000
    4  0.000  0.000  0.000  0.000  0.000  0.000  0.000  0.000  0.000  0.000
tot    0.000  0.000  0.995  0.000  0.000  0.000  0.000  0.000  0.000  0.995
 
band     5 # energy  -39.84373171 # occ.  1.00000000
 
ion      s     py     pz     px    dxy    dyz    dz2    dxz  x2-y2    tot
    1  0.000  0.228  0.000  0.768  0.000  0.000  0.000  0.000  0.000  0.996
    2  0.000  0.000  0.000  0.000  0.000  0.000  0.000  0.000  0.000  0.000
    3  0.000  0.000  0.000  0.000  0.000  0.000  0.000  0.000  0.000  0.000
    4  0.000  0.000  0.000  0.000  0.000  0.000  0.000  0.000  0.000  0.000
tot    0.000  0.228  0.000  0.768  0.000  0.000  0.000  0.000  0.000  0.996
 
band     6 # energy  -39.84362520 # occ.  1.00000000
 
ion      s     py     pz     px    dxy    dyz    dz2    dxz  x2-y2    tot
    1  0.000  0.768  0.000  0.228  0.000  0.000  0.000  0.000  0.000  0.996
    2  0.000  0.000  0.000  0.000  0.000  0.000  0.000  0.000  0.000  0.000
    3  0.000  0.000  0.000  0.000  0.000  0.000  0.000  0.000  0.000  0.000
    4  0.000  0.000  0.000  0.000  0.000  0.000  0.000  0.000  0.000  0.000
tot    0.000  0.768  0.000  0.228  0.000  0.000  0.000  0.000  0.000  0.996
 
band     7 # energy   -5.42157285 # occ.  1.00000000
 
ion      s     py     pz     px    dxy    dyz    dz2    dxz  x2-y2    tot
    1  0.000  0.000  0.004  0.000  0.000  0.000  0.000  0.000  0.000  0.005
    2  0.028  0.000  0.000  0.000  0.000  0.000  0.000  0.000  0.000  0.029
    3  0.291  0.000  0.001  0.000  0.000  0.000  0.000  0.000  0.000  0.292
    4  0.291  0.000  0.001  0.000  0.000  0.000  0.000  0.000  0.000  0.292
tot    0.610  0.000  0.007  0.001  0.000  0.000  0.000  0.000  0.000  0.619
 
band     8 # energy   -5.37954285 # occ.  1.00000000
 
ion      s     py     pz     px    dxy    dyz    dz2    dxz  x2-y2    tot
    1  0.022  0.000  0.000  0.000  0.000  0.000  0.000  0.000  0.000  0.023
    2  0.000  0.000  0.006  0.000  0.000  0.000  0.000  0.001  0.000  0.006
    3  0.295  0.000  0.001  0.000  0.000  0.000  0.000  0.000  0.000  0.296
    4  0.295  0.000  0.001  0.000  0.000  0.000  0.000  0.000  0.000  0.296
tot    0.612  0.000  0.008  0.001  0.000  0.000  0.000  0.001  0.000  0.622
 
band     9 # energy    2.17665522 # occ.  1.00000000
 
ion      s     py     pz     px    dxy    dyz    dz2    dxz  x2-y2    tot
    1  0.000  0.000  0.006  0.000  0.004  0.001  0.000  0.003  0.001  0.015
    2  0.055  0.000  0.000  0.000  0.000  0.000  0.256  0.001  0.000  0.313
    3  0.020  0.001  0.096  0.003  0.000  0.000  0.001  0.000  0.000  0.121
    4  0.020  0.001  0.096  0.003  0.000  0.000  0.001  0.000  0.000  0.121
tot    0.096  0.002  0.199  0.005  0.004  0.001  0.257  0.004  0.001  0.569
 
band    10 # energy    2.32117622 # occ.  1.00000000
 
ion      s     py     pz     px    dxy    dyz    dz2    dxz  x2-y2    tot
    1  0.033  0.000  0.000  0.000  0.000  0.000  0.007  0.000  0.000  0.040
    2  0.000  0.000  0.001  0.000  0.184  0.035  0.000  0.104  0.061  0.385
    3  0.012  0.009  0.062  0.026  0.000  0.000  0.000  0.000  0.000  0.109
    4  0.012  0.009  0.062  0.026  0.000  0.000  0.000  0.000  0.000  0.109
tot    0.057  0.017  0.125  0.052  0.184  0.035  0.007  0.104  0.061  0.643
 
band    11 # energy    2.72510945 # occ.  1.00000000
 
ion      s     py     pz     px    dxy    dyz    dz2    dxz  x2-y2    tot
    1  0.000  0.001  0.000  0.000  0.000  0.000  0.000  0.000  0.000  0.002
    2  0.000  0.000  0.000  0.000  0.107  0.203  0.000  0.068  0.322  0.700
    3  0.000  0.038  0.000  0.013  0.000  0.001  0.000  0.000  0.000  0.053
    4  0.000  0.038  0.000  0.013  0.000  0.001  0.000  0.000  0.000  0.053
tot    0.000  0.078  0.000  0.026  0.108  0.205  0.000  0.068  0.323  0.807
 
band    12 # energy    3.18801801 # occ.  1.00000000
 
ion      s     py     pz     px    dxy    dyz    dz2    dxz  x2-y2    tot
    1  0.019  0.000  0.000  0.001  0.001  0.000  0.019  0.001  0.000  0.042
    2  0.001  0.000  0.008  0.000  0.332  0.011  0.012  0.032  0.111  0.506
    3  0.007  0.004  0.054  0.011  0.000  0.000  0.001  0.001  0.000  0.078
    4  0.007  0.004  0.054  0.011  0.000  0.000  0.001  0.001  0.000  0.078
tot    0.033  0.008  0.116  0.023  0.333  0.011  0.033  0.034  0.111  0.703
 
band    13 # energy    3.22814749 # occ.  1.00000000
 
ion      s     py     pz     px    dxy    dyz    dz2    dxz  x2-y2    tot
    1  0.008  0.001  0.001  0.002  0.005  0.001  0.012  0.002  0.002  0.034
    2  0.005  0.000  0.005  0.000  0.009  0.116  0.076  0.348  0.003  0.564
    3  0.007  0.007  0.034  0.022  0.001  0.000  0.000  0.000  0.000  0.072
    4  0.007  0.007  0.034  0.022  0.001  0.000  0.000  0.000  0.000  0.072
tot    0.028  0.015  0.073  0.046  0.016  0.117  0.089  0.351  0.005  0.741
 
band    14 # energy    3.27409729 # occ.  1.00000000
 
ion      s     py     pz     px    dxy    dyz    dz2    dxz  x2-y2    tot
    1  0.000  0.000  0.000  0.000  0.000  0.001  0.000  0.000  0.001  0.003
    2  0.000  0.000  0.000  0.000  0.085  0.395  0.000  0.132  0.254  0.865
    3  0.000  0.005  0.000  0.002  0.000  0.000  0.000  0.000  0.001  0.008
    4  0.000  0.005  0.000  0.002  0.000  0.000  0.000  0.000  0.001  0.008
tot    0.000  0.011  0.000  0.004  0.086  0.396  0.000  0.132  0.257  0.885
 
band    15 # energy    3.50861499 # occ.  1.00000000
 
ion      s     py     pz     px    dxy    dyz    dz2    dxz  x2-y2    tot
    1  0.000  0.000  0.001  0.000  0.014  0.004  0.001  0.011  0.005  0.035
    2  0.035  0.000  0.000  0.001  0.028  0.037  0.389  0.111  0.009  0.611
    3  0.014  0.007  0.023  0.021  0.000  0.000  0.001  0.000  0.000  0.066
    4  0.014  0.007  0.023  0.021  0.000  0.000  0.001  0.000  0.000  0.066
tot    0.064  0.014  0.046  0.043  0.043  0.041  0.391  0.122  0.014  0.778
 
band    16 # energy    4.50676357 # occ.  1.00000000
 
ion      s     py     pz     px    dxy    dyz    dz2    dxz  x2-y2    tot
    1  0.000  0.000  0.000  0.000  0.031  0.075  0.000  0.025  0.093  0.225
    2  0.000  0.009  0.000  0.003  0.004  0.014  0.000  0.005  0.011  0.044
    3  0.000  0.130  0.000  0.043  0.000  0.001  0.000  0.000  0.000  0.175
    4  0.000  0.130  0.000  0.043  0.000  0.001  0.000  0.000  0.000  0.175
tot    0.000  0.269  0.000  0.090  0.035  0.090  0.000  0.030  0.105  0.618
 
band    17 # energy    4.69299083 # occ.  1.00000000
 
ion      s     py     pz     px    dxy    dyz    dz2    dxz  x2-y2    tot
    1  0.000  0.000  0.006  0.000  0.057  0.012  0.000  0.036  0.019  0.130
    2  0.007  0.003  0.000  0.009  0.009  0.002  0.151  0.007  0.003  0.192
    3  0.002  0.032  0.033  0.095  0.000  0.000  0.000  0.001  0.000  0.162
    4  0.002  0.032  0.033  0.095  0.000  0.000  0.000  0.001  0.000  0.162
tot    0.010  0.066  0.071  0.199  0.066  0.015  0.152  0.044  0.022  0.646
 
band    18 # energy    5.57431052 # occ.  1.00000000
 
ion      s     py     pz     px    dxy    dyz    dz2    dxz  x2-y2    tot
    1  0.017  0.003  0.000  0.008  0.013  0.004  0.039  0.013  0.004  0.101
    2  0.001  0.000  0.010  0.001  0.106  0.025  0.000  0.074  0.035  0.253
    3  0.014  0.033  0.001  0.100  0.001  0.000  0.001  0.001  0.000  0.151
    4  0.014  0.033  0.001  0.100  0.001  0.000  0.001  0.001  0.000  0.151
tot    0.045  0.070  0.011  0.210  0.120  0.030  0.042  0.089  0.040  0.656
 
band    19 # energy    6.09874099 # occ.  1.00000000
 
ion      s     py     pz     px    dxy    dyz    dz2    dxz  x2-y2    tot
    1  0.000  0.010  0.000  0.003  0.011  0.040  0.000  0.013  0.033  0.110
    2  0.000  0.003  0.000  0.001  0.028  0.066  0.000  0.022  0.085  0.205
    3  0.000  0.130  0.000  0.043  0.000  0.001  0.000  0.000  0.001  0.177
    4  0.000  0.130  0.000  0.043  0.000  0.001  0.000  0.000  0.001  0.177
tot    0.000  0.274  0.000  0.091  0.040  0.108  0.000  0.036  0.120  0.669
 
band    20 # energy    6.94219940 # occ.  0.00000000
 
ion      s     py     pz     px    dxy    dyz    dz2    dxz  x2-y2    tot
    1  0.011  0.000  0.000  0.000  0.157  0.076  0.209  0.228  0.052  0.733
    2  0.001  0.001  0.004  0.002  0.000  0.000  0.000  0.001  0.000  0.010
    3  0.006  0.000  0.003  0.000  0.003  0.000  0.002  0.000  0.001  0.016
    4  0.006  0.000  0.003  0.000  0.003  0.000  0.002  0.000  0.001  0.016
tot    0.025  0.001  0.010  0.003  0.163  0.076  0.213  0.229  0.054  0.775
 
band    21 # energy    7.22781405 # occ.  0.00000000
 
ion      s     py     pz     px    dxy    dyz    dz2    dxz  x2-y2    tot
    1  0.000  0.002  0.000  0.001  0.075  0.311  0.000  0.104  0.225  0.718
    2  0.000  0.000  0.000  0.000  0.004  0.009  0.000  0.003  0.012  0.029
    3  0.000  0.027  0.000  0.009  0.001  0.000  0.000  0.000  0.002  0.039
    4  0.000  0.027  0.000  0.009  0.001  0.000  0.000  0.000  0.002  0.039
tot    0.000  0.056  0.000  0.019  0.081  0.321  0.000  0.107  0.242  0.825
 
band    22 # energy    7.36683892 # occ.  0.00000000
 
ion      s     py     pz     px    dxy    dyz    dz2    dxz  x2-y2    tot
    1  0.005  0.001  0.000  0.003  0.084  0.030  0.441  0.089  0.028  0.681
    2  0.000  0.000  0.001  0.000  0.008  0.002  0.000  0.005  0.003  0.019
    3  0.002  0.011  0.010  0.033  0.001  0.000  0.002  0.000  0.000  0.059
    4  0.002  0.011  0.010  0.033  0.001  0.000  0.002  0.000  0.000  0.059
tot    0.010  0.023  0.021  0.069  0.093  0.031  0.445  0.094  0.031  0.817
 
band    23 # energy    7.70827894 # occ.  0.00000000
 
ion      s     py     pz     px    dxy    dyz    dz2    dxz  x2-y2    tot
    1  0.000  0.000  0.005  0.000  0.229  0.080  0.000  0.239  0.076  0.630
    2  0.029  0.003  0.000  0.010  0.001  0.000  0.008  0.001  0.000  0.053
    3  0.015  0.009  0.006  0.026  0.000  0.001  0.001  0.004  0.000  0.062
    4  0.015  0.009  0.006  0.026  0.000  0.001  0.001  0.004  0.000  0.062
tot    0.059  0.021  0.017  0.062  0.231  0.083  0.009  0.249  0.077  0.807
 
band    24 # energy    8.09756702 # occ.  0.00000000
 
ion      s     py     pz     px    dxy    dyz    dz2    dxz  x2-y2    tot
    1  0.000  0.001  0.000  0.000  0.088  0.216  0.000  0.072  0.264  0.642
    2  0.000  0.015  0.000  0.005  0.000  0.002  0.000  0.001  0.001  0.025
    3  0.000  0.057  0.000  0.019  0.000  0.004  0.000  0.001  0.000  0.081
    4  0.000  0.057  0.000  0.019  0.000  0.004  0.000  0.001  0.000  0.081
tot    0.000  0.129  0.000  0.043  0.089  0.226  0.000  0.075  0.267  0.829
 

 k-point    26 :    0.13157895 0.00000000 0.50000000     weight = 0.02500000

band     1 # energy  -44.23140927 # occ.  1.00000000
 
ion      s     py     pz     px    dxy    dyz    dz2    dxz  x2-y2    tot
    1  0.000  0.000  0.000  0.000  0.000  0.000  0.000  0.000  0.000  0.000
    2  0.000  0.237  0.000  0.758  0.000  0.000  0.000  0.000  0.000  0.995
    3  0.000  0.000  0.000  0.000  0.000  0.000  0.000  0.000  0.000  0.000
    4  0.000  0.000  0.000  0.000  0.000  0.000  0.000  0.000  0.000  0.000
tot    0.000  0.237  0.000  0.758  0.000  0.000  0.000  0.000  0.000  0.995
 
band     2 # energy  -44.23128183 # occ.  1.00000000
 
ion      s     py     pz     px    dxy    dyz    dz2    dxz  x2-y2    tot
    1  0.000  0.000  0.000  0.000  0.000  0.000  0.000  0.000  0.000  0.000
    2  0.000  0.758  0.000  0.237  0.000  0.000  0.000  0.000  0.000  0.995
    3  0.000  0.000  0.000  0.000  0.000  0.000  0.000  0.000  0.000  0.000
    4  0.000  0.000  0.000  0.000  0.000  0.000  0.000  0.000  0.000  0.000
tot    0.000  0.758  0.000  0.237  0.000  0.000  0.000  0.000  0.000  0.995
 
band     3 # energy  -44.22826997 # occ.  1.00000000
 
ion      s     py     pz     px    dxy    dyz    dz2    dxz  x2-y2    tot
    1  0.000  0.000  0.000  0.000  0.000  0.000  0.000  0.000  0.000  0.000
    2  0.000  0.000  0.995  0.000  0.000  0.000  0.000  0.000  0.000  0.995
    3  0.000  0.000  0.000  0.000  0.000  0.000  0.000  0.000  0.000  0.000
    4  0.000  0.000  0.000  0.000  0.000  0.000  0.000  0.000  0.000  0.000
tot    0.000  0.000  0.995  0.000  0.000  0.000  0.000  0.000  0.000  0.995
 
band     4 # energy  -39.85058335 # occ.  1.00000000
 
ion      s     py     pz     px    dxy    dyz    dz2    dxz  x2-y2    tot
    1  0.000  0.000  0.995  0.000  0.000  0.000  0.000  0.000  0.000  0.995
    2  0.000  0.000  0.000  0.000  0.000  0.000  0.000  0.000  0.000  0.000
    3  0.000  0.000  0.000  0.000  0.000  0.000  0.000  0.000  0.000  0.000
    4  0.000  0.000  0.000  0.000  0.000  0.000  0.000  0.000  0.000  0.000
tot    0.000  0.000  0.995  0.000  0.000  0.000  0.000  0.000  0.000  0.995
 
band     5 # energy  -39.84383595 # occ.  1.00000000
 
ion      s     py     pz     px    dxy    dyz    dz2    dxz  x2-y2    tot
    1  0.000  0.237  0.000  0.759  0.000  0.000  0.000  0.000  0.000  0.995
    2  0.000  0.000  0.000  0.000  0.000  0.000  0.000  0.000  0.000  0.000
    3  0.000  0.000  0.000  0.000  0.000  0.000  0.000  0.000  0.000  0.000
    4  0.000  0.000  0.000  0.000  0.000  0.000  0.000  0.000  0.000  0.000
tot    0.000  0.237  0.000  0.759  0.000  0.000  0.000  0.000  0.000  0.996
 
band     6 # energy  -39.84364834 # occ.  1.00000000
 
ion      s     py     pz     px    dxy    dyz    dz2    dxz  x2-y2    tot
    1  0.000  0.759  0.000  0.237  0.000  0.000  0.000  0.000  0.000  0.996
    2  0.000  0.000  0.000  0.000  0.000  0.000  0.000  0.000  0.000  0.000
    3  0.000  0.000  0.000  0.000  0.000  0.000  0.000  0.000  0.000  0.000
    4  0.000  0.000  0.000  0.000  0.000  0.000  0.000  0.000  0.000  0.000
tot    0.000  0.759  0.000  0.237  0.000  0.000  0.000  0.000  0.000  0.996
 
band     7 # energy   -5.38307039 # occ.  1.00000000
 
ion      s     py     pz     px    dxy    dyz    dz2    dxz  x2-y2    tot
    1  0.000  0.000  0.004  0.000  0.000  0.000  0.000  0.000  0.000  0.005
    2  0.027  0.000  0.000  0.001  0.000  0.000  0.000  0.000  0.000  0.028
    3  0.293  0.000  0.001  0.000  0.000  0.000  0.000  0.000  0.000  0.294
    4  0.293  0.000  0.001  0.000  0.000  0.000  0.000  0.000  0.000  0.294
tot    0.612  0.000  0.007  0.001  0.000  0.000  0.000  0.000  0.000  0.621
 
band     8 # energy   -5.34316529 # occ.  1.00000000
 
ion      s     py     pz     px    dxy    dyz    dz2    dxz  x2-y2    tot
    1  0.021  0.000  0.000  0.001  0.000  0.000  0.000  0.000  0.000  0.022
    2  0.000  0.000  0.005  0.000  0.000  0.000  0.000  0.001  0.000  0.007
    3  0.296  0.000  0.001  0.000  0.000  0.000  0.000  0.000  0.000  0.298
    4  0.296  0.000  0.001  0.000  0.000  0.000  0.000  0.000  0.000  0.298
tot    0.614  0.000  0.008  0.001  0.000  0.000  0.000  0.001  0.000  0.625
 
band     9 # energy    2.18165238 # occ.  1.00000000
 
ion      s     py     pz     px    dxy    dyz    dz2    dxz  x2-y2    tot
    1  0.000  0.000  0.005  0.000  0.006  0.001  0.000  0.004  0.002  0.019
    2  0.058  0.000  0.000  0.001  0.000  0.001  0.227  0.004  0.000  0.291
    3  0.021  0.002  0.097  0.005  0.000  0.000  0.001  0.000  0.000  0.126
    4  0.021  0.002  0.097  0.005  0.000  0.000  0.001  0.000  0.000  0.126
tot    0.101  0.004  0.198  0.011  0.006  0.003  0.228  0.008  0.002  0.561
 
band    10 # energy    2.22178743 # occ.  1.00000000
 
ion      s     py     pz     px    dxy    dyz    dz2    dxz  x2-y2    tot
    1  0.034  0.000  0.000  0.000  0.000  0.000  0.005  0.001  0.000  0.040
    2  0.001  0.000  0.001  0.000  0.180  0.033  0.002  0.098  0.060  0.373
    3  0.012  0.009  0.061  0.028  0.000  0.000  0.000  0.000  0.000  0.111
    4  0.012  0.009  0.061  0.028  0.000  0.000  0.000  0.000  0.000  0.111
tot    0.059  0.019  0.123  0.056  0.180  0.033  0.007  0.099  0.060  0.634
 
band    11 # energy    2.72954307 # occ.  1.00000000
 
ion      s     py     pz     px    dxy    dyz    dz2    dxz  x2-y2    tot
    1  0.000  0.001  0.000  0.000  0.000  0.000  0.000  0.000  0.000  0.002
    2  0.000  0.000  0.000  0.000  0.100  0.221  0.000  0.074  0.301  0.696
    3  0.000  0.039  0.000  0.013  0.000  0.001  0.000  0.000  0.000  0.053
    4  0.000  0.039  0.000  0.013  0.000  0.001  0.000  0.000  0.000  0.053
tot    0.000  0.079  0.000  0.026  0.101  0.223  0.000  0.074  0.302  0.805
 
band    12 # energy    3.12419310 # occ.  1.00000000
 
ion      s     py     pz     px    dxy    dyz    dz2    dxz  x2-y2    tot
    1  0.000  0.000  0.002  0.001  0.009  0.002  0.000  0.006  0.003  0.023
    2  0.010  0.000  0.000  0.001  0.122  0.079  0.185  0.237  0.041  0.675
    3  0.004  0.010  0.001  0.029  0.001  0.000  0.000  0.000  0.000  0.046
    4  0.004  0.010  0.001  0.029  0.001  0.000  0.000  0.000  0.000  0.046
tot    0.019  0.020  0.004  0.060  0.132  0.081  0.186  0.243  0.044  0.790
 
band    13 # energy    3.26075595 # occ.  1.00000000
 
ion      s     py     pz     px    dxy    dyz    dz2    dxz  x2-y2    tot
    1  0.000  0.000  0.000  0.000  0.001  0.001  0.000  0.000  0.002  0.005
    2  0.000  0.000  0.000  0.000  0.091  0.365  0.000  0.122  0.273  0.851
    3  0.000  0.007  0.000  0.002  0.000  0.000  0.000  0.000  0.001  0.011
    4  0.000  0.007  0.000  0.002  0.000  0.000  0.000  0.000  0.001  0.011
tot    0.000  0.016  0.000  0.005  0.092  0.367  0.000  0.122  0.276  0.878
 
band    14 # energy    3.29915915 # occ.  1.00000000
 
ion      s     py     pz     px    dxy    dyz    dz2    dxz  x2-y2    tot
    1  0.021  0.001  0.000  0.003  0.002  0.000  0.029  0.000  0.001  0.057
    2  0.004  0.000  0.012  0.000  0.217  0.001  0.045  0.002  0.072  0.353
    3  0.010  0.006  0.075  0.017  0.000  0.000  0.001  0.001  0.000  0.110
    4  0.010  0.006  0.075  0.017  0.000  0.000  0.001  0.001  0.000  0.110
tot    0.045  0.012  0.162  0.037  0.219  0.001  0.076  0.004  0.073  0.631
 
band    15 # energy    3.46598422 # occ.  1.00000000
 
ion      s     py     pz     px    dxy    dyz    dz2    dxz  x2-y2    tot
    1  0.004  0.000  0.000  0.000  0.009  0.003  0.008  0.008  0.003  0.034
    2  0.022  0.000  0.003  0.000  0.019  0.081  0.247  0.243  0.006  0.622
    3  0.011  0.005  0.030  0.014  0.001  0.000  0.000  0.000  0.000  0.061
    4  0.011  0.005  0.030  0.014  0.001  0.000  0.000  0.000  0.000  0.061
tot    0.048  0.010  0.063  0.030  0.029  0.084  0.256  0.251  0.010  0.779
 
band    16 # energy    4.50008954 # occ.  1.00000000
 
ion      s     py     pz     px    dxy    dyz    dz2    dxz  x2-y2    tot
    1  0.000  0.001  0.000  0.000  0.028  0.078  0.000  0.026  0.085  0.217
    2  0.000  0.009  0.000  0.003  0.006  0.019  0.000  0.006  0.017  0.060
    3  0.000  0.128  0.000  0.043  0.000  0.001  0.000  0.000  0.001  0.172
    4  0.000  0.128  0.000  0.043  0.000  0.001  0.000  0.000  0.001  0.172
tot    0.000  0.266  0.000  0.089  0.034  0.098  0.000  0.033  0.103  0.622
 
band    17 # energy    4.73207035 # occ.  1.00000000
 
ion      s     py     pz     px    dxy    dyz    dz2    dxz  x2-y2    tot
    1  0.000  0.000  0.007  0.000  0.038  0.010  0.002  0.029  0.013  0.098
    2  0.006  0.004  0.001  0.011  0.020  0.002  0.180  0.005  0.007  0.234
    3  0.002  0.029  0.041  0.087  0.000  0.000  0.000  0.000  0.000  0.160
    4  0.002  0.029  0.041  0.087  0.000  0.000  0.000  0.000  0.000  0.160
tot    0.010  0.061  0.090  0.184  0.058  0.011  0.182  0.034  0.019  0.651
 
band    18 # energy    5.30973644 # occ.  1.00000000
 
ion      s     py     pz     px    dxy    dyz    dz2    dxz  x2-y2    tot
    1  0.019  0.002  0.000  0.007  0.017  0.003  0.030  0.010  0.006  0.095
    2  0.002  0.000  0.010  0.001  0.110  0.030  0.003  0.089  0.037  0.282
    3  0.015  0.030  0.002  0.090  0.001  0.000  0.001  0.001  0.000  0.140
    4  0.015  0.030  0.002  0.090  0.001  0.000  0.001  0.001  0.000  0.140
tot    0.052  0.063  0.014  0.188  0.128  0.034  0.035  0.101  0.043  0.656
 
band    19 # energy    5.99066411 # occ.  1.00000000
 
ion      s     py     pz     px    dxy    dyz    dz2    dxz  x2-y2    tot
    1  0.000  0.011  0.000  0.004  0.012  0.039  0.000  0.013  0.037  0.116
    2  0.000  0.003  0.000  0.001  0.027  0.072  0.000  0.024  0.081  0.208
    3  0.000  0.125  0.000  0.042  0.000  0.001  0.000  0.000  0.001  0.170
    4  0.000  0.125  0.000  0.042  0.000  0.001  0.000  0.000  0.001  0.170
tot    0.000  0.264  0.000  0.088  0.040  0.113  0.000  0.038  0.120  0.663
 
band    20 # energy    6.91836805 # occ.  0.00000000
 
ion      s     py     pz     px    dxy    dyz    dz2    dxz  x2-y2    tot
    1  0.011  0.000  0.000  0.000  0.171  0.071  0.197  0.213  0.057  0.720
    2  0.003  0.001  0.004  0.002  0.001  0.000  0.000  0.001  0.000  0.013
    3  0.006  0.000  0.003  0.000  0.003  0.000  0.002  0.000  0.001  0.017
    4  0.006  0.000  0.003  0.000  0.003  0.000  0.002  0.000  0.001  0.017
tot    0.026  0.001  0.011  0.003  0.178  0.072  0.201  0.215  0.059  0.767
 
band    21 # energy    7.29706906 # occ.  0.00000000
 
ion      s     py     pz     px    dxy    dyz    dz2    dxz  x2-y2    tot
    1  0.000  0.002  0.000  0.001  0.081  0.297  0.000  0.099  0.242  0.722
    2  0.000  0.000  0.000  0.000  0.004  0.010  0.000  0.003  0.012  0.030
    3  0.000  0.028  0.000  0.009  0.001  0.000  0.000  0.000  0.002  0.041
    4  0.000  0.028  0.000  0.009  0.001  0.000  0.000  0.000  0.002  0.041
tot    0.000  0.060  0.000  0.020  0.086  0.308  0.000  0.103  0.258  0.833
 
band    22 # energy    7.43847758 # occ.  0.00000000
 
ion      s     py     pz     px    dxy    dyz    dz2    dxz  x2-y2    tot
    1  0.003  0.001  0.001  0.003  0.149  0.009  0.454  0.027  0.050  0.696
    2  0.003  0.000  0.000  0.001  0.005  0.002  0.001  0.005  0.002  0.018
    3  0.002  0.010  0.012  0.030  0.000  0.000  0.001  0.000  0.000  0.056
    4  0.002  0.010  0.012  0.030  0.000  0.000  0.001  0.000  0.000  0.056
tot    0.011  0.021  0.025  0.063  0.154  0.011  0.457  0.033  0.051  0.826
 
band    23 # energy    7.56889684 # occ.  0.00000000
 
ion      s     py     pz     px    dxy    dyz    dz2    dxz  x2-y2    tot
    1  0.001  0.000  0.004  0.000  0.151  0.108  0.024  0.324  0.050  0.662
    2  0.032  0.003  0.000  0.008  0.003  0.000  0.006  0.001  0.001  0.053
    3  0.016  0.006  0.006  0.017  0.000  0.001  0.000  0.004  0.000  0.050
    4  0.016  0.006  0.006  0.017  0.000  0.001  0.000  0.004  0.000  0.050
tot    0.066  0.014  0.015  0.042  0.155  0.111  0.031  0.332  0.052  0.816
 
band    24 # energy    8.04948761 # occ.  0.00000000
 
ion      s     py     pz     px    dxy    dyz    dz2    dxz  x2-y2    tot
    1  0.000  0.001  0.000  0.000  0.085  0.230  0.000  0.077  0.254  0.648
    2  0.000  0.015  0.000  0.005  0.001  0.003  0.000  0.001  0.002  0.027
    3  0.000  0.053  0.000  0.018  0.000  0.004  0.000  0.001  0.001  0.076
    4  0.000  0.053  0.000  0.018  0.000  0.004  0.000  0.001  0.001  0.076
tot    0.000  0.121  0.000  0.040  0.086  0.241  0.000  0.080  0.258  0.827
 

 k-point    27 :    0.15789474 0.00000000 0.50000000     weight = 0.02500000

band     1 # energy  -44.23147673 # occ.  1.00000000
 
ion      s     py     pz     px    dxy    dyz    dz2    dxz  x2-y2    tot
    1  0.000  0.000  0.000  0.000  0.000  0.000  0.000  0.000  0.000  0.000
    2  0.000  0.240  0.000  0.755  0.000  0.000  0.000  0.000  0.000  0.995
    3  0.000  0.000  0.000  0.000  0.000  0.000  0.000  0.000  0.000  0.000
    4  0.000  0.000  0.000  0.000  0.000  0.000  0.000  0.000  0.000  0.000
tot    0.000  0.240  0.000  0.755  0.000  0.000  0.000  0.000  0.000  0.995
 
band     2 # energy  -44.23130360 # occ.  1.00000000
 
ion      s     py     pz     px    dxy    dyz    dz2    dxz  x2-y2    tot
    1  0.000  0.000  0.000  0.000  0.000  0.000  0.000  0.000  0.000  0.000
    2  0.000  0.755  0.000  0.240  0.000  0.000  0.000  0.000  0.000  0.995
    3  0.000  0.000  0.000  0.000  0.000  0.000  0.000  0.000  0.000  0.000
    4  0.000  0.000  0.000  0.000  0.000  0.000  0.000  0.000  0.000  0.000
tot    0.000  0.755  0.000  0.240  0.000  0.000  0.000  0.000  0.000  0.995
 
band     3 # energy  -44.22825958 # occ.  1.00000000
 
ion      s     py     pz     px    dxy    dyz    dz2    dxz  x2-y2    tot
    1  0.000  0.000  0.000  0.000  0.000  0.000  0.000  0.000  0.000  0.000
    2  0.000  0.000  0.995  0.000  0.000  0.000  0.000  0.000  0.000  0.995
    3  0.000  0.000  0.000  0.000  0.000  0.000  0.000  0.000  0.000  0.000
    4  0.000  0.000  0.000  0.000  0.000  0.000  0.000  0.000  0.000  0.000
tot    0.000  0.000  0.995  0.000  0.000  0.000  0.000  0.000  0.000  0.995
 
band     4 # energy  -39.85056706 # occ.  1.00000000
 
ion      s     py     pz     px    dxy    dyz    dz2    dxz  x2-y2    tot
    1  0.000  0.000  0.995  0.000  0.000  0.000  0.000  0.000  0.000  0.995
    2  0.000  0.000  0.000  0.000  0.000  0.000  0.000  0.000  0.000  0.000
    3  0.000  0.000  0.000  0.000  0.000  0.000  0.000  0.000  0.000  0.000
    4  0.000  0.000  0.000  0.000  0.000  0.000  0.000  0.000  0.000  0.000
tot    0.000  0.000  0.995  0.000  0.000  0.000  0.000  0.000  0.000  0.995
 
band     5 # energy  -39.84393520 # occ.  1.00000000
 
ion      s     py     pz     px    dxy    dyz    dz2    dxz  x2-y2    tot
    1  0.000  0.240  0.000  0.755  0.000  0.000  0.000  0.000  0.000  0.995
    2  0.000  0.000  0.000  0.000  0.000  0.000  0.000  0.000  0.000  0.000
    3  0.000  0.000  0.000  0.000  0.000  0.000  0.000  0.000  0.000  0.000
    4  0.000  0.000  0.000  0.000  0.000  0.000  0.000  0.000  0.000  0.000
tot    0.000  0.240  0.000  0.755  0.000  0.000  0.000  0.000  0.000  0.996
 
band     6 # energy  -39.84367878 # occ.  1.00000000
 
ion      s     py     pz     px    dxy    dyz    dz2    dxz  x2-y2    tot
    1  0.000  0.755  0.000  0.240  0.000  0.000  0.000  0.000  0.000  0.996
    2  0.000  0.000  0.000  0.000  0.000  0.000  0.000  0.000  0.000  0.000
    3  0.000  0.000  0.000  0.000  0.000  0.000  0.000  0.000  0.000  0.000
    4  0.000  0.000  0.000  0.000  0.000  0.000  0.000  0.000  0.000  0.000
tot    0.000  0.755  0.000  0.240  0.000  0.000  0.000  0.000  0.000  0.996
 
band     7 # energy   -5.33723644 # occ.  1.00000000
 
ion      s     py     pz     px    dxy    dyz    dz2    dxz  x2-y2    tot
    1  0.000  0.000  0.004  0.000  0.000  0.000  0.000  0.001  0.000  0.005
    2  0.026  0.000  0.000  0.001  0.000  0.000  0.000  0.000  0.000  0.027
    3  0.294  0.000  0.001  0.000  0.000  0.000  0.000  0.000  0.000  0.296
    4  0.294  0.000  0.001  0.000  0.000  0.000  0.000  0.000  0.000  0.296
tot    0.615  0.001  0.006  0.002  0.000  0.000  0.000  0.001  0.000  0.625
 
band     8 # energy   -5.29989818 # occ.  1.00000000
 
ion      s     py     pz     px    dxy    dyz    dz2    dxz  x2-y2    tot
    1  0.020  0.000  0.000  0.001  0.000  0.000  0.000  0.000  0.000  0.021
    2  0.000  0.000  0.005  0.000  0.000  0.000  0.000  0.001  0.000  0.007
    3  0.298  0.000  0.001  0.000  0.000  0.000  0.000  0.000  0.000  0.300
    4  0.298  0.000  0.001  0.000  0.000  0.000  0.000  0.000  0.000  0.300
tot    0.617  0.000  0.007  0.001  0.000  0.000  0.000  0.001  0.000  0.628
 
band     9 # energy    2.12299677 # occ.  1.00000000
 
ion      s     py     pz     px    dxy    dyz    dz2    dxz  x2-y2    tot
    1  0.036  0.000  0.000  0.000  0.000  0.000  0.004  0.000  0.000  0.040
    2  0.000  0.000  0.000  0.001  0.169  0.032  0.001  0.097  0.056  0.357
    3  0.012  0.010  0.059  0.031  0.000  0.000  0.000  0.000  0.000  0.113
    4  0.012  0.010  0.059  0.031  0.000  0.000  0.000  0.000  0.000  0.113
tot    0.060  0.021  0.118  0.063  0.169  0.032  0.005  0.097  0.056  0.623
 
band    10 # energy    2.17716219 # occ.  1.00000000
 
ion      s     py     pz     px    dxy    dyz    dz2    dxz  x2-y2    tot
    1  0.000  0.000  0.003  0.000  0.009  0.002  0.000  0.007  0.003  0.025
    2  0.063  0.000  0.000  0.000  0.007  0.000  0.184  0.001  0.002  0.259
    3  0.023  0.003  0.096  0.009  0.000  0.000  0.000  0.000  0.000  0.133
    4  0.023  0.003  0.096  0.009  0.000  0.000  0.000  0.000  0.000  0.133
tot    0.110  0.007  0.196  0.020  0.016  0.003  0.185  0.008  0.005  0.550
 
band    11 # energy    2.73323925 # occ.  1.00000000
 
ion      s     py     pz     px    dxy    dyz    dz2    dxz  x2-y2    tot
    1  0.000  0.001  0.000  0.000  0.000  0.000  0.000  0.000  0.000  0.003
    2  0.000  0.000  0.000  0.000  0.092  0.244  0.000  0.081  0.275  0.692
    3  0.000  0.040  0.000  0.013  0.000  0.001  0.000  0.000  0.000  0.055
    4  0.000  0.040  0.000  0.013  0.000  0.001  0.000  0.000  0.000  0.055
tot    0.000  0.081  0.000  0.027  0.092  0.246  0.000  0.082  0.276  0.804
 
band    12 # energy    3.00741838 # occ.  1.00000000
 
ion      s     py     pz     px    dxy    dyz    dz2    dxz  x2-y2    tot
    1  0.000  0.000  0.004  0.001  0.010  0.002  0.000  0.006  0.003  0.028
    2  0.011  0.001  0.000  0.002  0.060  0.055  0.293  0.164  0.020  0.605
    3  0.005  0.013  0.000  0.039  0.001  0.000  0.001  0.000  0.000  0.058
    4  0.005  0.013  0.000  0.039  0.001  0.000  0.001  0.000  0.000  0.058
tot    0.021  0.027  0.005  0.080  0.071  0.057  0.294  0.170  0.024  0.749
 
band    13 # energy    3.24817776 # occ.  1.00000000
 
ion      s     py     pz     px    dxy    dyz    dz2    dxz  x2-y2    tot
    1  0.000  0.000  0.000  0.000  0.001  0.002  0.000  0.001  0.002  0.006
    2  0.000  0.001  0.000  0.000  0.099  0.330  0.000  0.110  0.297  0.837
    3  0.000  0.010  0.000  0.003  0.000  0.000  0.000  0.000  0.001  0.014
    4  0.000  0.010  0.000  0.003  0.000  0.000  0.000  0.000  0.001  0.014
tot    0.000  0.021  0.000  0.007  0.100  0.332  0.000  0.111  0.300  0.871
 
band    14 # energy    3.34170171 # occ.  1.00000000
 
ion      s     py     pz     px    dxy    dyz    dz2    dxz  x2-y2    tot
    1  0.009  0.001  0.000  0.002  0.004  0.001  0.012  0.002  0.001  0.031
    2  0.010  0.000  0.005  0.000  0.278  0.029  0.110  0.086  0.093  0.609
    3  0.007  0.004  0.035  0.011  0.000  0.000  0.001  0.000  0.000  0.058
    4  0.007  0.004  0.035  0.011  0.000  0.000  0.001  0.000  0.000  0.058
tot    0.032  0.008  0.076  0.023  0.282  0.029  0.124  0.088  0.094  0.756
 
band    15 # energy    3.50597419 # occ.  1.00000000
 
ion      s     py     pz     px    dxy    dyz    dz2    dxz  x2-y2    tot
    1  0.013  0.001  0.000  0.003  0.003  0.002  0.029  0.005  0.001  0.055
    2  0.009  0.000  0.012  0.000  0.005  0.073  0.096  0.219  0.002  0.415
    3  0.010  0.005  0.068  0.016  0.001  0.000  0.001  0.000  0.000  0.101
    4  0.010  0.005  0.068  0.016  0.001  0.000  0.001  0.000  0.000  0.101
tot    0.042  0.011  0.148  0.034  0.009  0.075  0.126  0.224  0.003  0.673
 
band    16 # energy    4.48821504 # occ.  1.00000000
 
ion      s     py     pz     px    dxy    dyz    dz2    dxz  x2-y2    tot
    1  0.000  0.001  0.000  0.000  0.025  0.080  0.000  0.027  0.075  0.208
    2  0.000  0.010  0.000  0.003  0.008  0.023  0.000  0.008  0.025  0.077
    3  0.000  0.126  0.000  0.042  0.000  0.001  0.000  0.000  0.001  0.170
    4  0.000  0.126  0.000  0.042  0.000  0.001  0.000  0.000  0.001  0.170
tot    0.000  0.264  0.000  0.088  0.034  0.104  0.000  0.035  0.101  0.626
 
band    17 # energy    4.72306285 # occ.  1.00000000
 
ion      s     py     pz     px    dxy    dyz    dz2    dxz  x2-y2    tot
    1  0.002  0.000  0.008  0.000  0.016  0.008  0.007  0.025  0.005  0.071
    2  0.003  0.004  0.003  0.013  0.058  0.000  0.180  0.000  0.019  0.280
    3  0.004  0.027  0.041  0.081  0.000  0.000  0.000  0.000  0.000  0.154
    4  0.004  0.027  0.041  0.081  0.000  0.000  0.000  0.000  0.000  0.154
tot    0.011  0.058  0.093  0.174  0.075  0.008  0.188  0.025  0.025  0.658
 
band    18 # energy    5.08674832 # occ.  1.00000000
 
ion      s     py     pz     px    dxy    dyz    dz2    dxz  x2-y2    tot
    1  0.021  0.002  0.002  0.006  0.024  0.001  0.017  0.004  0.008  0.086
    2  0.005  0.000  0.008  0.000  0.091  0.037  0.029  0.110  0.030  0.309
    3  0.014  0.026  0.011  0.078  0.000  0.000  0.001  0.001  0.000  0.132
    4  0.014  0.026  0.011  0.078  0.000  0.000  0.001  0.001  0.000  0.132
tot    0.055  0.054  0.031  0.163  0.116  0.039  0.048  0.116  0.039  0.660
 
band    19 # energy    5.88658861 # occ.  1.00000000
 
ion      s     py     pz     px    dxy    dyz    dz2    dxz  x2-y2    tot
    1  0.000  0.011  0.000  0.004  0.013  0.036  0.000  0.012  0.040  0.116
    2  0.000  0.003  0.000  0.001  0.025  0.079  0.000  0.026  0.076  0.212
    3  0.000  0.121  0.000  0.040  0.000  0.001  0.000  0.000  0.001  0.165
    4  0.000  0.121  0.000  0.040  0.000  0.001  0.000  0.000  0.001  0.165
tot    0.000  0.257  0.000  0.086  0.040  0.117  0.000  0.039  0.119  0.658
 
band    20 # energy    6.88782371 # occ.  0.00000000
 
ion      s     py     pz     px    dxy    dyz    dz2    dxz  x2-y2    tot
    1  0.012  0.000  0.000  0.000  0.192  0.063  0.184  0.188  0.064  0.703
    2  0.005  0.001  0.004  0.003  0.001  0.001  0.001  0.002  0.000  0.018
    3  0.006  0.000  0.004  0.000  0.003  0.000  0.002  0.001  0.001  0.018
    4  0.006  0.000  0.004  0.000  0.003  0.000  0.002  0.001  0.001  0.018
tot    0.030  0.001  0.012  0.003  0.200  0.064  0.188  0.191  0.067  0.756
 
band    21 # energy    7.35798957 # occ.  0.00000000
 
ion      s     py     pz     px    dxy    dyz    dz2    dxz  x2-y2    tot
    1  0.000  0.003  0.000  0.001  0.089  0.279  0.000  0.093  0.267  0.731
    2  0.000  0.000  0.000  0.000  0.004  0.011  0.000  0.004  0.011  0.029
    3  0.000  0.028  0.000  0.009  0.001  0.000  0.000  0.000  0.002  0.040
    4  0.000  0.028  0.000  0.009  0.001  0.000  0.000  0.000  0.002  0.040
tot    0.000  0.060  0.000  0.020  0.094  0.291  0.000  0.097  0.281  0.841
 
band    22 # energy    7.40631989 # occ.  0.00000000
 
ion      s     py     pz     px    dxy    dyz    dz2    dxz  x2-y2    tot
    1  0.000  0.000  0.002  0.001  0.280  0.036  0.153  0.109  0.093  0.676
    2  0.032  0.002  0.000  0.005  0.000  0.001  0.004  0.004  0.000  0.048
    3  0.014  0.005  0.008  0.014  0.000  0.001  0.001  0.004  0.000  0.047
    4  0.014  0.005  0.008  0.014  0.000  0.001  0.001  0.004  0.000  0.047
tot    0.061  0.012  0.018  0.035  0.281  0.040  0.158  0.120  0.093  0.818
 
band    23 # energy    7.54185989 # occ.  0.00000000
 
ion      s     py     pz     px    dxy    dyz    dz2    dxz  x2-y2    tot
    1  0.003  0.001  0.000  0.002  0.000  0.092  0.360  0.275  0.000  0.732
    2  0.008  0.001  0.000  0.002  0.005  0.000  0.001  0.000  0.002  0.019
    3  0.005  0.007  0.010  0.021  0.000  0.000  0.001  0.001  0.000  0.046
    4  0.005  0.007  0.010  0.021  0.000  0.000  0.001  0.001  0.000  0.046
tot    0.021  0.015  0.021  0.046  0.006  0.092  0.362  0.277  0.002  0.844
 
band    24 # energy    7.99800278 # occ.  0.00000000
 
ion      s     py     pz     px    dxy    dyz    dz2    dxz  x2-y2    tot
    1  0.000  0.002  0.000  0.001  0.080  0.250  0.000  0.083  0.240  0.656
    2  0.000  0.015  0.000  0.005  0.001  0.004  0.000  0.001  0.003  0.028
    3  0.000  0.048  0.000  0.016  0.000  0.004  0.000  0.001  0.001  0.071
    4  0.000  0.048  0.000  0.016  0.000  0.004  0.000  0.001  0.001  0.071
tot    0.000  0.113  0.000  0.038  0.081  0.262  0.000  0.087  0.244  0.826
 

 k-point    28 :    0.18421053 0.00000000 0.50000000     weight = 0.02500000

band     1 # energy  -44.23155891 # occ.  1.00000000
 
ion      s     py     pz     px    dxy    dyz    dz2    dxz  x2-y2    tot
    1  0.000  0.000  0.000  0.000  0.000  0.000  0.000  0.000  0.000  0.000
    2  0.000  0.242  0.000  0.753  0.000  0.000  0.000  0.000  0.000  0.995
    3  0.000  0.000  0.000  0.000  0.000  0.000  0.000  0.000  0.000  0.000
    4  0.000  0.000  0.000  0.000  0.000  0.000  0.000  0.000  0.000  0.000
tot    0.000  0.242  0.000  0.753  0.000  0.000  0.000  0.000  0.000  0.995
 
band     2 # energy  -44.23132931 # occ.  1.00000000
 
ion      s     py     pz     px    dxy    dyz    dz2    dxz  x2-y2    tot
    1  0.000  0.000  0.000  0.000  0.000  0.000  0.000  0.000  0.000  0.000
    2  0.000  0.753  0.000  0.242  0.000  0.000  0.000  0.000  0.000  0.995
    3  0.000  0.000  0.000  0.000  0.000  0.000  0.000  0.000  0.000  0.000
    4  0.000  0.000  0.000  0.000  0.000  0.000  0.000  0.000  0.000  0.000
tot    0.000  0.753  0.000  0.242  0.000  0.000  0.000  0.000  0.000  0.995
 
band     3 # energy  -44.22825872 # occ.  1.00000000
 
ion      s     py     pz     px    dxy    dyz    dz2    dxz  x2-y2    tot
    1  0.000  0.000  0.000  0.000  0.000  0.000  0.000  0.000  0.000  0.000
    2  0.000  0.000  0.995  0.000  0.000  0.000  0.000  0.000  0.000  0.995
    3  0.000  0.000  0.000  0.000  0.000  0.000  0.000  0.000  0.000  0.000
    4  0.000  0.000  0.000  0.000  0.000  0.000  0.000  0.000  0.000  0.000
tot    0.000  0.000  0.995  0.000  0.000  0.000  0.000  0.000  0.000  0.995
 
band     4 # energy  -39.85056108 # occ.  1.00000000
 
ion      s     py     pz     px    dxy    dyz    dz2    dxz  x2-y2    tot
    1  0.000  0.000  0.995  0.000  0.000  0.000  0.000  0.000  0.000  0.995
    2  0.000  0.000  0.000  0.000  0.000  0.000  0.000  0.000  0.000  0.000
    3  0.000  0.000  0.000  0.000  0.000  0.000  0.000  0.000  0.000  0.000
    4  0.000  0.000  0.000  0.000  0.000  0.000  0.000  0.000  0.000  0.000
tot    0.000  0.000  0.995  0.000  0.000  0.000  0.000  0.000  0.000  0.995
 
band     5 # energy  -39.84405534 # occ.  1.00000000
 
ion      s     py     pz     px    dxy    dyz    dz2    dxz  x2-y2    tot
    1  0.000  0.242  0.000  0.753  0.000  0.000  0.000  0.000  0.000  0.995
    2  0.000  0.000  0.000  0.000  0.000  0.000  0.000  0.000  0.000  0.000
    3  0.000  0.000  0.000  0.000  0.000  0.000  0.000  0.000  0.000  0.000
    4  0.000  0.000  0.000  0.000  0.000  0.000  0.000  0.000  0.000  0.000
tot    0.000  0.242  0.000  0.753  0.000  0.000  0.000  0.000  0.000  0.995
 
band     6 # energy  -39.84371527 # occ.  1.00000000
 
ion      s     py     pz     px    dxy    dyz    dz2    dxz  x2-y2    tot
    1  0.000  0.753  0.000  0.242  0.000  0.000  0.000  0.000  0.000  0.996
    2  0.000  0.000  0.000  0.000  0.000  0.000  0.000  0.000  0.000  0.000
    3  0.000  0.000  0.000  0.000  0.000  0.000  0.000  0.000  0.000  0.000
    4  0.000  0.000  0.000  0.000  0.000  0.000  0.000  0.000  0.000  0.000
tot    0.000  0.753  0.000  0.242  0.000  0.000  0.000  0.000  0.000  0.996
 
band     7 # energy   -5.28486040 # occ.  1.00000000
 
ion      s     py     pz     px    dxy    dyz    dz2    dxz  x2-y2    tot
    1  0.000  0.000  0.004  0.000  0.000  0.000  0.000  0.001  0.000  0.006
    2  0.024  0.000  0.000  0.001  0.000  0.000  0.000  0.000  0.000  0.026
    3  0.297  0.000  0.001  0.000  0.000  0.000  0.000  0.000  0.000  0.298
    4  0.297  0.000  0.001  0.000  0.000  0.000  0.000  0.000  0.000  0.298
tot    0.618  0.001  0.006  0.002  0.000  0.000  0.000  0.001  0.000  0.628
 
band     8 # energy   -5.25049538 # occ.  1.00000000
 
ion      s     py     pz     px    dxy    dyz    dz2    dxz  x2-y2    tot
    1  0.019  0.000  0.000  0.001  0.000  0.000  0.000  0.000  0.000  0.020
    2  0.000  0.000  0.005  0.000  0.001  0.000  0.000  0.001  0.000  0.008
    3  0.300  0.000  0.001  0.000  0.000  0.000  0.000  0.000  0.000  0.302
    4  0.300  0.000  0.001  0.000  0.000  0.000  0.000  0.000  0.000  0.302
tot    0.619  0.001  0.007  0.002  0.001  0.001  0.000  0.002  0.000  0.632
 
band     9 # energy    2.02577235 # occ.  1.00000000
 
ion      s     py     pz     px    dxy    dyz    dz2    dxz  x2-y2    tot
    1  0.038  0.000  0.000  0.000  0.000  0.000  0.002  0.001  0.000  0.041
    2  0.000  0.000  0.000  0.001  0.164  0.030  0.000  0.089  0.055  0.339
    3  0.012  0.012  0.057  0.035  0.000  0.000  0.000  0.000  0.000  0.115
    4  0.012  0.012  0.057  0.035  0.000  0.000  0.000  0.000  0.000  0.115
tot    0.062  0.024  0.113  0.071  0.164  0.030  0.003  0.090  0.055  0.610
 
band    10 # energy    2.15057002 # occ.  1.00000000
 
ion      s     py     pz     px    dxy    dyz    dz2    dxz  x2-y2    tot
    1  0.000  0.000  0.002  0.001  0.013  0.003  0.000  0.009  0.004  0.033
    2  0.070  0.000  0.000  0.000  0.007  0.002  0.127  0.007  0.002  0.217
    3  0.025  0.006  0.092  0.018  0.000  0.000  0.000  0.000  0.000  0.141
    4  0.025  0.006  0.092  0.018  0.000  0.000  0.000  0.000  0.000  0.141
tot    0.120  0.012  0.186  0.037  0.020  0.005  0.128  0.016  0.007  0.532
 
band    11 # energy    2.73523128 # occ.  1.00000000
 
ion      s     py     pz     px    dxy    dyz    dz2    dxz  x2-y2    tot
    1  0.000  0.002  0.000  0.001  0.000  0.000  0.000  0.000  0.000  0.003
    2  0.000  0.000  0.000  0.000  0.081  0.271  0.000  0.090  0.244  0.687
    3  0.000  0.041  0.000  0.014  0.000  0.001  0.000  0.000  0.000  0.056
    4  0.000  0.041  0.000  0.014  0.000  0.001  0.000  0.000  0.000  0.056
tot    0.000  0.084  0.000  0.028  0.082  0.273  0.000  0.091  0.245  0.802
 
band    12 # energy    2.89179517 # occ.  1.00000000
 
ion      s     py     pz     px    dxy    dyz    dz2    dxz  x2-y2    tot
    1  0.000  0.000  0.007  0.001  0.007  0.002  0.000  0.005  0.002  0.024
    2  0.008  0.001  0.000  0.003  0.030  0.039  0.381  0.117  0.010  0.589
    3  0.003  0.013  0.002  0.040  0.000  0.000  0.001  0.000  0.000  0.059
    4  0.003  0.013  0.002  0.040  0.000  0.000  0.001  0.000  0.000  0.059
tot    0.015  0.028  0.010  0.083  0.038  0.041  0.383  0.122  0.013  0.732
 
band    13 # energy    3.23825365 # occ.  1.00000000
 
ion      s     py     pz     px    dxy    dyz    dz2    dxz  x2-y2    tot
    1  0.000  0.000  0.000  0.000  0.001  0.003  0.000  0.001  0.002  0.007
    2  0.000  0.001  0.000  0.000  0.108  0.291  0.000  0.097  0.325  0.822
    3  0.000  0.012  0.000  0.004  0.000  0.000  0.000  0.000  0.001  0.017
    4  0.000  0.012  0.000  0.004  0.000  0.000  0.000  0.000  0.001  0.017
tot    0.000  0.026  0.000  0.009  0.109  0.293  0.000  0.098  0.328  0.863
 
band    14 # energy    3.34191445 # occ.  1.00000000
 
ion      s     py     pz     px    dxy    dyz    dz2    dxz  x2-y2    tot
    1  0.004  0.000  0.001  0.001  0.004  0.001  0.004  0.002  0.001  0.017
    2  0.011  0.000  0.002  0.000  0.262  0.067  0.114  0.200  0.087  0.742
    3  0.005  0.002  0.017  0.006  0.000  0.000  0.001  0.000  0.000  0.031
    4  0.005  0.002  0.017  0.006  0.000  0.000  0.001  0.000  0.000  0.031
tot    0.024  0.004  0.037  0.012  0.267  0.068  0.119  0.203  0.089  0.822
 
band    15 # energy    3.59979308 # occ.  1.00000000
 
ion      s     py     pz     px    dxy    dyz    dz2    dxz  x2-y2    tot
    1  0.014  0.002  0.000  0.005  0.001  0.001  0.041  0.004  0.000  0.069
    2  0.005  0.000  0.017  0.000  0.028  0.044  0.046  0.133  0.009  0.283
    3  0.009  0.007  0.088  0.020  0.001  0.000  0.001  0.001  0.000  0.127
    4  0.009  0.007  0.088  0.020  0.001  0.000  0.001  0.001  0.000  0.127
tot    0.037  0.015  0.194  0.044  0.031  0.046  0.089  0.138  0.010  0.605
 
band    16 # energy    4.46938232 # occ.  1.00000000
 
ion      s     py     pz     px    dxy    dyz    dz2    dxz  x2-y2    tot
    1  0.000  0.001  0.000  0.000  0.022  0.083  0.000  0.028  0.065  0.198
    2  0.000  0.011  0.000  0.004  0.012  0.026  0.000  0.009  0.035  0.095
    3  0.000  0.125  0.000  0.042  0.000  0.000  0.000  0.000  0.001  0.168
    4  0.000  0.125  0.000  0.042  0.000  0.000  0.000  0.000  0.001  0.168
tot    0.000  0.261  0.000  0.087  0.034  0.110  0.000  0.037  0.101  0.629
 
band    17 # energy    4.59860659 # occ.  1.00000000
 
ion      s     py     pz     px    dxy    dyz    dz2    dxz  x2-y2    tot
    1  0.009  0.001  0.004  0.002  0.001  0.007  0.012  0.021  0.000  0.058
    2  0.000  0.004  0.007  0.011  0.137  0.007  0.121  0.022  0.046  0.353
    3  0.009  0.024  0.024  0.073  0.001  0.000  0.000  0.000  0.000  0.133
    4  0.009  0.024  0.024  0.073  0.001  0.000  0.000  0.000  0.000  0.133
tot    0.027  0.053  0.060  0.159  0.139  0.014  0.134  0.043  0.046  0.676
 
band    18 # energy    4.98007922 # occ.  1.00000000
 
ion      s     py     pz     px    dxy    dyz    dz2    dxz  x2-y2    tot
    1  0.016  0.001  0.007  0.004  0.026  0.000  0.004  0.000  0.009  0.068
    2  0.006  0.001  0.003  0.003  0.038  0.036  0.109  0.108  0.013  0.318
    3  0.010  0.023  0.036  0.068  0.000  0.000  0.001  0.001  0.000  0.138
    4  0.010  0.023  0.036  0.068  0.000  0.000  0.001  0.001  0.000  0.138
tot    0.042  0.047  0.081  0.142  0.064  0.037  0.114  0.111  0.021  0.662
 
band    19 # energy    5.79067154 # occ.  1.00000000
 
ion      s     py     pz     px    dxy    dyz    dz2    dxz  x2-y2    tot
    1  0.000  0.012  0.000  0.004  0.014  0.030  0.000  0.010  0.042  0.112
    2  0.000  0.003  0.000  0.001  0.024  0.089  0.000  0.030  0.071  0.218
    3  0.000  0.119  0.000  0.040  0.000  0.001  0.000  0.000  0.001  0.161
    4  0.000  0.119  0.000  0.040  0.000  0.001  0.000  0.000  0.001  0.161
tot    0.000  0.252  0.000  0.084  0.038  0.122  0.000  0.041  0.115  0.653
 
band    20 # energy    6.85002563 # occ.  0.00000000
 
ion      s     py     pz     px    dxy    dyz    dz2    dxz  x2-y2    tot
    1  0.013  0.000  0.000  0.000  0.220  0.052  0.167  0.156  0.073  0.681
    2  0.009  0.001  0.004  0.003  0.002  0.001  0.001  0.003  0.001  0.024
    3  0.007  0.000  0.004  0.001  0.004  0.000  0.002  0.001  0.001  0.019
    4  0.007  0.000  0.004  0.001  0.004  0.000  0.002  0.001  0.001  0.019
tot    0.035  0.001  0.013  0.004  0.229  0.054  0.171  0.161  0.076  0.743
 
band    21 # energy    7.31981705 # occ.  0.00000000
 
ion      s     py     pz     px    dxy    dyz    dz2    dxz  x2-y2    tot
    1  0.000  0.000  0.001  0.000  0.241  0.068  0.103  0.204  0.080  0.700
    2  0.040  0.001  0.000  0.004  0.000  0.001  0.002  0.003  0.000  0.051
    3  0.017  0.002  0.005  0.007  0.000  0.001  0.001  0.004  0.000  0.037
    4  0.017  0.002  0.005  0.007  0.000  0.001  0.001  0.004  0.000  0.037
tot    0.074  0.006  0.012  0.018  0.242  0.072  0.107  0.215  0.081  0.826
 
band    22 # energy    7.40851899 # occ.  0.00000000
 
ion      s     py     pz     px    dxy    dyz    dz2    dxz  x2-y2    tot
    1  0.000  0.003  0.000  0.001  0.100  0.255  0.000  0.085  0.300  0.745
    2  0.000  0.000  0.000  0.000  0.003  0.011  0.000  0.004  0.009  0.028
    3  0.000  0.027  0.000  0.009  0.000  0.000  0.000  0.000  0.001  0.038
    4  0.000  0.027  0.000  0.009  0.000  0.000  0.000  0.000  0.001  0.038
tot    0.000  0.057  0.000  0.019  0.104  0.267  0.000  0.089  0.312  0.849
 
band    23 # energy    7.58826557 # occ.  0.00000000
 
ion      s     py     pz     px    dxy    dyz    dz2    dxz  x2-y2    tot
    1  0.002  0.001  0.000  0.002  0.013  0.073  0.443  0.218  0.004  0.756
    2  0.004  0.000  0.000  0.001  0.003  0.000  0.000  0.000  0.001  0.011
    3  0.002  0.007  0.013  0.020  0.000  0.000  0.001  0.000  0.000  0.044
    4  0.002  0.007  0.013  0.020  0.000  0.000  0.001  0.000  0.000  0.044
tot    0.011  0.015  0.025  0.044  0.017  0.073  0.445  0.219  0.006  0.855
 
band    24 # energy    7.94609889 # occ.  0.00000000
 
ion      s     py     pz     px    dxy    dyz    dz2    dxz  x2-y2    tot
    1  0.000  0.002  0.000  0.001  0.073  0.278  0.000  0.093  0.218  0.664
    2  0.000  0.015  0.000  0.005  0.001  0.004  0.000  0.001  0.004  0.030
    3  0.000  0.044  0.000  0.015  0.000  0.004  0.000  0.001  0.001  0.066
    4  0.000  0.044  0.000  0.015  0.000  0.004  0.000  0.001  0.001  0.066
tot    0.000  0.105  0.000  0.035  0.074  0.290  0.000  0.097  0.223  0.825
 

 k-point    29 :    0.21052632 0.00000000 0.50000000     weight = 0.02500000

band     1 # energy  -44.23163602 # occ.  1.00000000
 
ion      s     py     pz     px    dxy    dyz    dz2    dxz  x2-y2    tot
    1  0.000  0.000  0.000  0.000  0.000  0.000  0.000  0.000  0.000  0.000
    2  0.000  0.244  0.000  0.752  0.000  0.000  0.000  0.000  0.000  0.995
    3  0.000  0.000  0.000  0.000  0.000  0.000  0.000  0.000  0.000  0.000
    4  0.000  0.000  0.000  0.000  0.000  0.000  0.000  0.000  0.000  0.000
tot    0.000  0.244  0.000  0.752  0.000  0.000  0.000  0.000  0.000  0.995
 
band     2 # energy  -44.23135205 # occ.  1.00000000
 
ion      s     py     pz     px    dxy    dyz    dz2    dxz  x2-y2    tot
    1  0.000  0.000  0.000  0.000  0.000  0.000  0.000  0.000  0.000  0.000
    2  0.000  0.752  0.000  0.244  0.000  0.000  0.000  0.000  0.000  0.995
    3  0.000  0.000  0.000  0.000  0.000  0.000  0.000  0.000  0.000  0.000
    4  0.000  0.000  0.000  0.000  0.000  0.000  0.000  0.000  0.000  0.000
tot    0.000  0.752  0.000  0.244  0.000  0.000  0.000  0.000  0.000  0.995
 
band     3 # energy  -44.22824621 # occ.  1.00000000
 
ion      s     py     pz     px    dxy    dyz    dz2    dxz  x2-y2    tot
    1  0.000  0.000  0.000  0.000  0.000  0.000  0.000  0.000  0.000  0.000
    2  0.000  0.000  0.995  0.000  0.000  0.000  0.000  0.000  0.000  0.995
    3  0.000  0.000  0.000  0.000  0.000  0.000  0.000  0.000  0.000  0.000
    4  0.000  0.000  0.000  0.000  0.000  0.000  0.000  0.000  0.000  0.000
tot    0.000  0.000  0.995  0.000  0.000  0.000  0.000  0.000  0.000  0.995
 
band     4 # energy  -39.85054165 # occ.  1.00000000
 
ion      s     py     pz     px    dxy    dyz    dz2    dxz  x2-y2    tot
    1  0.000  0.000  0.995  0.000  0.000  0.000  0.000  0.000  0.000  0.995
    2  0.000  0.000  0.000  0.000  0.000  0.000  0.000  0.000  0.000  0.000
    3  0.000  0.000  0.000  0.000  0.000  0.000  0.000  0.000  0.000  0.000
    4  0.000  0.000  0.000  0.000  0.000  0.000  0.000  0.000  0.000  0.000
tot    0.000  0.000  0.995  0.000  0.000  0.000  0.000  0.000  0.000  0.995
 
band     5 # energy  -39.84417066 # occ.  1.00000000
 
ion      s     py     pz     px    dxy    dyz    dz2    dxz  x2-y2    tot
    1  0.000  0.243  0.000  0.752  0.000  0.000  0.000  0.000  0.000  0.995
    2  0.000  0.000  0.000  0.000  0.000  0.000  0.000  0.000  0.000  0.000
    3  0.000  0.000  0.000  0.000  0.000  0.000  0.000  0.000  0.000  0.000
    4  0.000  0.000  0.000  0.000  0.000  0.000  0.000  0.000  0.000  0.000
tot    0.000  0.243  0.000  0.752  0.000  0.000  0.000  0.000  0.000  0.995
 
band     6 # energy  -39.84374781 # occ.  1.00000000
 
ion      s     py     pz     px    dxy    dyz    dz2    dxz  x2-y2    tot
    1  0.000  0.752  0.000  0.243  0.000  0.000  0.000  0.000  0.000  0.996
    2  0.000  0.000  0.000  0.000  0.000  0.000  0.000  0.000  0.000  0.000
    3  0.000  0.000  0.000  0.000  0.000  0.000  0.000  0.000  0.000  0.000
    4  0.000  0.000  0.000  0.000  0.000  0.000  0.000  0.000  0.000  0.000
tot    0.000  0.752  0.000  0.243  0.000  0.000  0.000  0.000  0.000  0.996
 
band     7 # energy   -5.22691549 # occ.  1.00000000
 
ion      s     py     pz     px    dxy    dyz    dz2    dxz  x2-y2    tot
    1  0.000  0.000  0.004  0.000  0.000  0.000  0.000  0.001  0.000  0.006
    2  0.023  0.001  0.000  0.002  0.000  0.000  0.000  0.000  0.000  0.025
    3  0.299  0.000  0.001  0.000  0.000  0.000  0.000  0.000  0.000  0.301
    4  0.299  0.000  0.001  0.000  0.000  0.000  0.000  0.000  0.000  0.301
tot    0.621  0.001  0.005  0.003  0.001  0.000  0.000  0.001  0.000  0.633
 
band     8 # energy   -5.19586919 # occ.  1.00000000
 
ion      s     py     pz     px    dxy    dyz    dz2    dxz  x2-y2    tot
    1  0.018  0.000  0.000  0.001  0.000  0.000  0.000  0.000  0.000  0.020
    2  0.000  0.000  0.004  0.000  0.001  0.001  0.000  0.002  0.000  0.008
    3  0.303  0.000  0.001  0.000  0.000  0.000  0.000  0.000  0.000  0.304
    4  0.303  0.000  0.001  0.000  0.000  0.000  0.000  0.000  0.000  0.304
tot    0.623  0.001  0.006  0.002  0.001  0.001  0.000  0.002  0.000  0.636
 
band     9 # energy    1.92872285 # occ.  1.00000000
 
ion      s     py     pz     px    dxy    dyz    dz2    dxz  x2-y2    tot
    1  0.039  0.000  0.000  0.000  0.000  0.000  0.001  0.001  0.000  0.043
    2  0.000  0.001  0.000  0.002  0.156  0.026  0.000  0.079  0.052  0.316
    3  0.012  0.013  0.054  0.039  0.000  0.000  0.000  0.000  0.000  0.118
    4  0.012  0.013  0.054  0.039  0.000  0.000  0.000  0.000  0.000  0.118
tot    0.063  0.026  0.108  0.079  0.156  0.027  0.002  0.080  0.052  0.593
 
band    10 # energy    2.08925554 # occ.  1.00000000
 
ion      s     py     pz     px    dxy    dyz    dz2    dxz  x2-y2    tot
    1  0.000  0.001  0.000  0.002  0.017  0.004  0.000  0.011  0.006  0.040
    2  0.076  0.000  0.000  0.000  0.009  0.005  0.066  0.015  0.003  0.175
    3  0.026  0.010  0.082  0.030  0.000  0.000  0.000  0.000  0.000  0.149
    4  0.026  0.010  0.082  0.030  0.000  0.000  0.000  0.000  0.000  0.149
tot    0.128  0.021  0.165  0.062  0.026  0.009  0.066  0.026  0.009  0.512
 
band    11 # energy    2.73459268 # occ.  1.00000000
 
ion      s     py     pz     px    dxy    dyz    dz2    dxz  x2-y2    tot
    1  0.000  0.002  0.000  0.001  0.000  0.000  0.000  0.000  0.000  0.004
    2  0.000  0.000  0.000  0.000  0.070  0.301  0.000  0.100  0.210  0.681
    3  0.000  0.042  0.000  0.014  0.000  0.001  0.000  0.000  0.000  0.057
    4  0.000  0.042  0.000  0.014  0.000  0.001  0.000  0.000  0.000  0.057
tot    0.000  0.086  0.000  0.029  0.070  0.302  0.000  0.101  0.211  0.800
 
band    12 # energy    2.80281226 # occ.  1.00000000
 
ion      s     py     pz     px    dxy    dyz    dz2    dxz  x2-y2    tot
    1  0.000  0.000  0.009  0.001  0.003  0.001  0.000  0.002  0.001  0.017
    2  0.003  0.001  0.000  0.004  0.013  0.029  0.454  0.087  0.004  0.595
    3  0.001  0.011  0.009  0.034  0.000  0.000  0.001  0.000  0.000  0.057
    4  0.001  0.011  0.009  0.034  0.000  0.000  0.001  0.000  0.000  0.057
tot    0.006  0.024  0.026  0.072  0.017  0.030  0.457  0.089  0.006  0.726
 
band    13 # energy    3.23283696 # occ.  1.00000000
 
ion      s     py     pz     px    dxy    dyz    dz2    dxz  x2-y2    tot
    1  0.000  0.000  0.000  0.000  0.001  0.003  0.000  0.001  0.002  0.008
    2  0.000  0.001  0.000  0.000  0.119  0.248  0.000  0.083  0.357  0.809
    3  0.000  0.015  0.000  0.005  0.000  0.000  0.000  0.000  0.000  0.020
    4  0.000  0.015  0.000  0.005  0.000  0.000  0.000  0.000  0.000  0.020
tot    0.000  0.031  0.000  0.010  0.120  0.252  0.000  0.084  0.360  0.857
 
band    14 # energy    3.33507180 # occ.  1.00000000
 
ion      s     py     pz     px    dxy    dyz    dz2    dxz  x2-y2    tot
    1  0.002  0.000  0.000  0.001  0.003  0.001  0.002  0.002  0.001  0.013
    2  0.010  0.000  0.001  0.000  0.247  0.087  0.100  0.260  0.082  0.786
    3  0.004  0.001  0.012  0.003  0.001  0.000  0.001  0.000  0.000  0.022
    4  0.004  0.001  0.012  0.003  0.001  0.000  0.001  0.000  0.000  0.022
tot    0.019  0.002  0.026  0.007  0.251  0.087  0.104  0.262  0.084  0.843
 
band    15 # energy    3.69621390 # occ.  1.00000000
 
ion      s     py     pz     px    dxy    dyz    dz2    dxz  x2-y2    tot
    1  0.010  0.002  0.000  0.007  0.001  0.002  0.049  0.006  0.000  0.077
    2  0.004  0.000  0.021  0.000  0.029  0.026  0.031  0.079  0.010  0.201
    3  0.007  0.009  0.098  0.026  0.001  0.000  0.001  0.000  0.000  0.142
    4  0.007  0.009  0.098  0.026  0.001  0.000  0.001  0.000  0.000  0.142
tot    0.028  0.020  0.217  0.059  0.032  0.029  0.082  0.086  0.011  0.562
 
band    16 # energy    4.39402917 # occ.  1.00000000
 
ion      s     py     pz     px    dxy    dyz    dz2    dxz  x2-y2    tot
    1  0.015  0.001  0.002  0.002  0.000  0.005  0.009  0.016  0.000  0.050
    2  0.000  0.003  0.007  0.008  0.194  0.018  0.094  0.054  0.065  0.443
    3  0.013  0.020  0.014  0.060  0.001  0.000  0.000  0.000  0.000  0.109
    4  0.013  0.020  0.014  0.060  0.001  0.000  0.000  0.000  0.000  0.109
tot    0.042  0.043  0.037  0.130  0.195  0.023  0.104  0.070  0.065  0.710
 
band    17 # energy    4.44208606 # occ.  1.00000000
 
ion      s     py     pz     px    dxy    dyz    dz2    dxz  x2-y2    tot
    1  0.000  0.001  0.000  0.000  0.018  0.086  0.000  0.029  0.054  0.188
    2  0.000  0.012  0.000  0.004  0.015  0.027  0.000  0.009  0.045  0.112
    3  0.000  0.123  0.000  0.041  0.000  0.000  0.000  0.000  0.001  0.166
    4  0.000  0.123  0.000  0.041  0.000  0.000  0.000  0.000  0.001  0.166
tot    0.000  0.259  0.000  0.086  0.034  0.114  0.000  0.038  0.101  0.631
 
band    18 # energy    4.96565200 # occ.  1.00000000
 
ion      s     py     pz     px    dxy    dyz    dz2    dxz  x2-y2    tot
    1  0.014  0.001  0.010  0.002  0.017  0.000  0.000  0.000  0.006  0.049
    2  0.005  0.002  0.001  0.007  0.017  0.034  0.156  0.103  0.006  0.330
    3  0.007  0.020  0.053  0.060  0.000  0.000  0.000  0.001  0.000  0.142
    4  0.007  0.020  0.053  0.060  0.000  0.000  0.000  0.001  0.000  0.142
tot    0.033  0.043  0.116  0.129  0.034  0.035  0.157  0.106  0.011  0.664
 
band    19 # energy    5.70593872 # occ.  1.00000000
 
ion      s     py     pz     px    dxy    dyz    dz2    dxz  x2-y2    tot
    1  0.000  0.013  0.000  0.004  0.014  0.024  0.000  0.008  0.043  0.106
    2  0.000  0.003  0.000  0.001  0.021  0.102  0.000  0.034  0.064  0.226
    3  0.000  0.117  0.000  0.039  0.000  0.002  0.000  0.001  0.001  0.159
    4  0.000  0.117  0.000  0.039  0.000  0.002  0.000  0.001  0.001  0.159
tot    0.000  0.249  0.000  0.083  0.036  0.129  0.000  0.043  0.109  0.649
 
band    20 # energy    6.80653747 # occ.  0.00000000
 
ion      s     py     pz     px    dxy    dyz    dz2    dxz  x2-y2    tot
    1  0.013  0.000  0.000  0.000  0.247  0.042  0.148  0.126  0.082  0.660
    2  0.014  0.001  0.005  0.002  0.002  0.001  0.001  0.004  0.001  0.031
    3  0.007  0.000  0.004  0.000  0.004  0.000  0.002  0.001  0.001  0.020
    4  0.007  0.000  0.004  0.000  0.004  0.000  0.002  0.001  0.001  0.020
tot    0.042  0.001  0.013  0.003  0.257  0.044  0.152  0.133  0.086  0.730
 
band    21 # energy    7.25971792 # occ.  0.00000000
 
ion      s     py     pz     px    dxy    dyz    dz2    dxz  x2-y2    tot
    1  0.000  0.000  0.001  0.000  0.210  0.081  0.116  0.243  0.070  0.721
    2  0.042  0.001  0.000  0.002  0.001  0.001  0.001  0.002  0.000  0.049
    3  0.017  0.001  0.004  0.003  0.000  0.001  0.001  0.004  0.000  0.031
    4  0.017  0.001  0.004  0.003  0.000  0.001  0.001  0.004  0.000  0.031
tot    0.076  0.003  0.008  0.009  0.210  0.084  0.118  0.253  0.070  0.832
 
band    22 # energy    7.44745850 # occ.  0.00000000
 
ion      s     py     pz     px    dxy    dyz    dz2    dxz  x2-y2    tot
    1  0.000  0.003  0.000  0.001  0.115  0.222  0.000  0.074  0.345  0.760
    2  0.000  0.000  0.000  0.000  0.002  0.012  0.000  0.004  0.007  0.026
    3  0.000  0.025  0.000  0.008  0.000  0.000  0.000  0.000  0.001  0.035
    4  0.000  0.025  0.000  0.008  0.000  0.000  0.000  0.000  0.001  0.035
tot    0.000  0.053  0.000  0.018  0.118  0.234  0.000  0.078  0.354  0.856
 
band    23 # energy    7.63238578 # occ.  0.00000000
 
ion      s     py     pz     px    dxy    dyz    dz2    dxz  x2-y2    tot
    1  0.001  0.001  0.000  0.003  0.017  0.071  0.462  0.212  0.006  0.773
    2  0.005  0.000  0.000  0.001  0.002  0.000  0.000  0.000  0.001  0.009
    3  0.002  0.006  0.013  0.018  0.000  0.000  0.001  0.000  0.000  0.041
    4  0.002  0.006  0.013  0.018  0.000  0.000  0.001  0.000  0.000  0.041
tot    0.010  0.013  0.027  0.039  0.019  0.071  0.463  0.213  0.006  0.863
 
band    24 # energy    7.89667885 # occ.  0.00000000
 
ion      s     py     pz     px    dxy    dyz    dz2    dxz  x2-y2    tot
    1  0.000  0.001  0.000  0.000  0.063  0.315  0.000  0.105  0.188  0.673
    2  0.000  0.016  0.000  0.005  0.001  0.003  0.000  0.001  0.004  0.031
    3  0.000  0.040  0.000  0.013  0.000  0.004  0.000  0.001  0.001  0.060
    4  0.000  0.040  0.000  0.013  0.000  0.004  0.000  0.001  0.001  0.060
tot    0.000  0.097  0.000  0.032  0.065  0.327  0.000  0.109  0.194  0.824
 

 k-point    30 :    0.23684211 0.00000000 0.50000000     weight = 0.02500000

band     1 # energy  -44.23171327 # occ.  1.00000000
 
ion      s     py     pz     px    dxy    dyz    dz2    dxz  x2-y2    tot
    1  0.000  0.000  0.000  0.000  0.000  0.000  0.000  0.000  0.000  0.000
    2  0.000  0.244  0.000  0.751  0.000  0.000  0.000  0.000  0.000  0.995
    3  0.000  0.000  0.000  0.000  0.000  0.000  0.000  0.000  0.000  0.000
    4  0.000  0.000  0.000  0.000  0.000  0.000  0.000  0.000  0.000  0.000
tot    0.000  0.244  0.000  0.751  0.000  0.000  0.000  0.000  0.000  0.995
 
band     2 # energy  -44.23138062 # occ.  1.00000000
 
ion      s     py     pz     px    dxy    dyz    dz2    dxz  x2-y2    tot
    1  0.000  0.000  0.000  0.000  0.000  0.000  0.000  0.000  0.000  0.000
    2  0.000  0.751  0.000  0.244  0.000  0.000  0.000  0.000  0.000  0.995
    3  0.000  0.000  0.000  0.000  0.000  0.000  0.000  0.000  0.000  0.000
    4  0.000  0.000  0.000  0.000  0.000  0.000  0.000  0.000  0.000  0.000
tot    0.000  0.751  0.000  0.244  0.000  0.000  0.000  0.000  0.000  0.995
 
band     3 # energy  -44.22823605 # occ.  1.00000000
 
ion      s     py     pz     px    dxy    dyz    dz2    dxz  x2-y2    tot
    1  0.000  0.000  0.000  0.000  0.000  0.000  0.000  0.000  0.000  0.000
    2  0.000  0.000  0.995  0.000  0.000  0.000  0.000  0.000  0.000  0.995
    3  0.000  0.000  0.000  0.000  0.000  0.000  0.000  0.000  0.000  0.000
    4  0.000  0.000  0.000  0.000  0.000  0.000  0.000  0.000  0.000  0.000
tot    0.000  0.000  0.995  0.000  0.000  0.000  0.000  0.000  0.000  0.995
 
band     4 # energy  -39.85052472 # occ.  1.00000000
 
ion      s     py     pz     px    dxy    dyz    dz2    dxz  x2-y2    tot
    1  0.000  0.000  0.995  0.000  0.000  0.000  0.000  0.000  0.000  0.995
    2  0.000  0.000  0.000  0.000  0.000  0.000  0.000  0.000  0.000  0.000
    3  0.000  0.000  0.000  0.000  0.000  0.000  0.000  0.000  0.000  0.000
    4  0.000  0.000  0.000  0.000  0.000  0.000  0.000  0.000  0.000  0.000
tot    0.000  0.000  0.995  0.000  0.000  0.000  0.000  0.000  0.000  0.995
 
band     5 # energy  -39.84428553 # occ.  1.00000000
 
ion      s     py     pz     px    dxy    dyz    dz2    dxz  x2-y2    tot
    1  0.000  0.244  0.000  0.751  0.000  0.000  0.000  0.000  0.000  0.995
    2  0.000  0.000  0.000  0.000  0.000  0.000  0.000  0.000  0.000  0.000
    3  0.000  0.000  0.000  0.000  0.000  0.000  0.000  0.000  0.000  0.000
    4  0.000  0.000  0.000  0.000  0.000  0.000  0.000  0.000  0.000  0.000
tot    0.000  0.244  0.000  0.751  0.000  0.000  0.000  0.000  0.000  0.995
 
band     6 # energy  -39.84378702 # occ.  1.00000000
 
ion      s     py     pz     px    dxy    dyz    dz2    dxz  x2-y2    tot
    1  0.000  0.751  0.000  0.244  0.000  0.000  0.000  0.000  0.000  0.996
    2  0.000  0.000  0.000  0.000  0.000  0.000  0.000  0.000  0.000  0.000
    3  0.000  0.000  0.000  0.000  0.000  0.000  0.000  0.000  0.000  0.000
    4  0.000  0.000  0.000  0.000  0.000  0.000  0.000  0.000  0.000  0.000
tot    0.000  0.751  0.000  0.244  0.000  0.000  0.000  0.000  0.000  0.996
 
band     7 # energy   -5.16459601 # occ.  1.00000000
 
ion      s     py     pz     px    dxy    dyz    dz2    dxz  x2-y2    tot
    1  0.000  0.000  0.003  0.000  0.001  0.000  0.000  0.001  0.000  0.006
    2  0.021  0.001  0.000  0.002  0.000  0.000  0.000  0.000  0.000  0.024
    3  0.302  0.000  0.001  0.000  0.000  0.000  0.000  0.000  0.000  0.304
    4  0.302  0.000  0.001  0.000  0.000  0.000  0.000  0.000  0.000  0.304
tot    0.625  0.001  0.005  0.003  0.001  0.001  0.000  0.002  0.000  0.638
 
band     8 # energy   -5.13710739 # occ.  1.00000000
 
ion      s     py     pz     px    dxy    dyz    dz2    dxz  x2-y2    tot
    1  0.016  0.001  0.000  0.002  0.000  0.000  0.000  0.000  0.000  0.018
    2  0.000  0.000  0.004  0.000  0.001  0.001  0.000  0.002  0.000  0.009
    3  0.305  0.000  0.001  0.000  0.000  0.000  0.000  0.000  0.000  0.307
    4  0.305  0.000  0.001  0.000  0.000  0.000  0.000  0.000  0.000  0.307
tot    0.627  0.001  0.006  0.003  0.001  0.001  0.000  0.003  0.000  0.641
 
band     9 # energy    1.83122322 # occ.  1.00000000
 
ion      s     py     pz     px    dxy    dyz    dz2    dxz  x2-y2    tot
    1  0.041  0.000  0.000  0.000  0.000  0.001  0.001  0.002  0.000  0.045
    2  0.001  0.001  0.001  0.002  0.147  0.022  0.000  0.066  0.049  0.288
    3  0.012  0.014  0.051  0.043  0.000  0.000  0.000  0.000  0.000  0.120
    4  0.012  0.014  0.051  0.043  0.000  0.000  0.000  0.000  0.000  0.120
tot    0.065  0.030  0.103  0.089  0.147  0.023  0.001  0.068  0.049  0.573
 
band    10 # energy    1.98732401 # occ.  1.00000000
 
ion      s     py     pz     px    dxy    dyz    dz2    dxz  x2-y2    tot
    1  0.001  0.001  0.000  0.002  0.019  0.004  0.000  0.011  0.006  0.044
    2  0.078  0.000  0.000  0.000  0.008  0.009  0.024  0.026  0.003  0.148
    3  0.026  0.015  0.067  0.044  0.000  0.000  0.000  0.000  0.000  0.152
    4  0.026  0.015  0.067  0.044  0.000  0.000  0.000  0.000  0.000  0.152
tot    0.131  0.030  0.135  0.090  0.027  0.012  0.024  0.037  0.009  0.495
 
band    11 # energy    2.73063621 # occ.  1.00000000
 
ion      s     py     pz     px    dxy    dyz    dz2    dxz  x2-y2    tot
    1  0.000  0.002  0.000  0.001  0.000  0.000  0.000  0.000  0.001  0.004
    2  0.000  0.000  0.000  0.000  0.058  0.331  0.000  0.110  0.175  0.674
    3  0.000  0.043  0.000  0.014  0.000  0.001  0.000  0.000  0.000  0.059
    4  0.000  0.043  0.000  0.014  0.000  0.001  0.000  0.000  0.000  0.059
tot    0.000  0.089  0.000  0.030  0.059  0.332  0.000  0.111  0.177  0.796
 
band    12 # energy    2.75241051 # occ.  1.00000000
 
ion      s     py     pz     px    dxy    dyz    dz2    dxz  x2-y2    tot
    1  0.000  0.000  0.010  0.000  0.001  0.000  0.000  0.000  0.000  0.012
    2  0.001  0.001  0.000  0.004  0.003  0.022  0.500  0.067  0.001  0.599
    3  0.000  0.008  0.020  0.025  0.000  0.000  0.001  0.000  0.000  0.056
    4  0.000  0.008  0.020  0.025  0.000  0.000  0.001  0.000  0.000  0.056
tot    0.001  0.018  0.051  0.055  0.004  0.022  0.502  0.067  0.001  0.722
 
band    13 # energy    3.23346457 # occ.  1.00000000
 
ion      s     py     pz     px    dxy    dyz    dz2    dxz  x2-y2    tot
    1  0.000  0.000  0.000  0.000  0.001  0.004  0.000  0.001  0.002  0.009
    2  0.000  0.002  0.000  0.001  0.130  0.207  0.000  0.069  0.390  0.798
    3  0.000  0.017  0.000  0.006  0.000  0.000  0.000  0.000  0.000  0.023
    4  0.000  0.017  0.000  0.006  0.000  0.000  0.000  0.000  0.000  0.023
tot    0.000  0.035  0.000  0.012  0.131  0.211  0.000  0.070  0.393  0.852
 
band    14 # energy    3.32815858 # occ.  1.00000000
 
ion      s     py     pz     px    dxy    dyz    dz2    dxz  x2-y2    tot
    1  0.002  0.000  0.000  0.001  0.003  0.001  0.001  0.002  0.001  0.010
    2  0.009  0.000  0.000  0.000  0.233  0.099  0.089  0.296  0.078  0.804
    3  0.003  0.001  0.011  0.002  0.001  0.000  0.001  0.000  0.000  0.019
    4  0.003  0.001  0.011  0.002  0.001  0.000  0.001  0.000  0.000  0.019
tot    0.017  0.002  0.023  0.005  0.237  0.099  0.091  0.298  0.079  0.851
 
band    15 # energy    3.76764166 # occ.  1.00000000
 
ion      s     py     pz     px    dxy    dyz    dz2    dxz  x2-y2    tot
    1  0.004  0.003  0.000  0.009  0.001  0.003  0.055  0.010  0.000  0.087
    2  0.004  0.000  0.026  0.000  0.009  0.011  0.016  0.032  0.003  0.102
    3  0.003  0.013  0.103  0.038  0.001  0.000  0.001  0.000  0.000  0.160
    4  0.003  0.013  0.103  0.038  0.001  0.000  0.001  0.000  0.000  0.160
tot    0.015  0.029  0.233  0.086  0.012  0.014  0.074  0.043  0.004  0.510
 
band    16 # energy    4.19784642 # occ.  1.00000000
 
ion      s     py     pz     px    dxy    dyz    dz2    dxz  x2-y2    tot
    1  0.019  0.000  0.002  0.001  0.001  0.003  0.002  0.009  0.000  0.037
    2  0.001  0.002  0.003  0.007  0.250  0.027  0.110  0.080  0.083  0.563
    3  0.015  0.014  0.011  0.041  0.001  0.000  0.000  0.001  0.000  0.082
    4  0.015  0.014  0.011  0.041  0.001  0.000  0.000  0.001  0.000  0.082
tot    0.051  0.030  0.027  0.089  0.251  0.030  0.112  0.091  0.084  0.765
 
band    17 # energy    4.40539297 # occ.  1.00000000
 
ion      s     py     pz     px    dxy    dyz    dz2    dxz  x2-y2    tot
    1  0.000  0.001  0.000  0.000  0.015  0.088  0.000  0.029  0.044  0.177
    2  0.000  0.013  0.000  0.004  0.019  0.026  0.000  0.009  0.057  0.128
    3  0.000  0.121  0.000  0.040  0.000  0.000  0.000  0.000  0.001  0.163
    4  0.000  0.121  0.000  0.040  0.000  0.000  0.000  0.000  0.001  0.163
tot    0.000  0.257  0.000  0.086  0.034  0.115  0.000  0.038  0.102  0.632
 
band    18 # energy    4.97714242 # occ.  1.00000000
 
ion      s     py     pz     px    dxy    dyz    dz2    dxz  x2-y2    tot
    1  0.015  0.000  0.011  0.001  0.009  0.000  0.000  0.001  0.003  0.040
    2  0.003  0.003  0.000  0.009  0.014  0.037  0.166  0.110  0.005  0.346
    3  0.007  0.017  0.063  0.052  0.000  0.000  0.000  0.001  0.000  0.141
    4  0.007  0.017  0.063  0.052  0.000  0.000  0.000  0.001  0.000  0.141
tot    0.032  0.038  0.136  0.114  0.023  0.038  0.167  0.113  0.008  0.668
 
band    19 # energy    5.63430175 # occ.  1.00000000
 
ion      s     py     pz     px    dxy    dyz    dz2    dxz  x2-y2    tot
    1  0.000  0.014  0.000  0.005  0.014  0.018  0.000  0.006  0.042  0.099
    2  0.000  0.003  0.000  0.001  0.019  0.115  0.000  0.038  0.057  0.234
    3  0.000  0.115  0.000  0.038  0.000  0.002  0.000  0.001  0.001  0.157
    4  0.000  0.115  0.000  0.038  0.000  0.002  0.000  0.001  0.001  0.157
tot    0.000  0.247  0.000  0.082  0.034  0.137  0.000  0.046  0.101  0.646
 
band    20 # energy    6.76175501 # occ.  0.00000000
 
ion      s     py     pz     px    dxy    dyz    dz2    dxz  x2-y2    tot
    1  0.013  0.000  0.000  0.000  0.264  0.036  0.133  0.107  0.088  0.641
    2  0.019  0.001  0.005  0.002  0.003  0.002  0.000  0.005  0.001  0.036
    3  0.007  0.000  0.004  0.000  0.004  0.001  0.002  0.002  0.001  0.020
    4  0.007  0.000  0.004  0.000  0.004  0.001  0.002  0.002  0.001  0.020
tot    0.047  0.001  0.013  0.002  0.274  0.038  0.136  0.115  0.091  0.718
 
band    21 # energy    7.22872101 # occ.  0.00000000
 
ion      s     py     pz     px    dxy    dyz    dz2    dxz  x2-y2    tot
    1  0.000  0.000  0.000  0.000  0.190  0.085  0.139  0.256  0.063  0.733
    2  0.042  0.000  0.001  0.001  0.001  0.000  0.000  0.001  0.000  0.047
    3  0.017  0.001  0.003  0.002  0.000  0.001  0.001  0.004  0.000  0.028
    4  0.017  0.001  0.003  0.002  0.000  0.001  0.001  0.004  0.000  0.028
tot    0.076  0.002  0.006  0.005  0.191  0.088  0.140  0.264  0.064  0.835
 
band    22 # energy    7.47400839 # occ.  0.00000000
 
ion      s     py     pz     px    dxy    dyz    dz2    dxz  x2-y2    tot
    1  0.000  0.003  0.000  0.001  0.133  0.179  0.000  0.060  0.400  0.776
    2  0.000  0.000  0.000  0.000  0.002  0.012  0.000  0.004  0.005  0.023
    3  0.000  0.022  0.000  0.007  0.000  0.000  0.000  0.000  0.001  0.031
    4  0.000  0.022  0.000  0.007  0.000  0.000  0.000  0.000  0.001  0.031
tot    0.000  0.048  0.000  0.016  0.136  0.191  0.000  0.064  0.407  0.862
 
band    23 # energy    7.67044320 # occ.  0.00000000
 
ion      s     py     pz     px    dxy    dyz    dz2    dxz  x2-y2    tot
    1  0.000  0.001  0.000  0.003  0.017  0.073  0.465  0.220  0.006  0.785
    2  0.006  0.000  0.000  0.000  0.001  0.000  0.000  0.000  0.000  0.009
    3  0.003  0.005  0.014  0.015  0.000  0.000  0.000  0.001  0.000  0.038
    4  0.003  0.005  0.014  0.015  0.000  0.000  0.000  0.001  0.000  0.038
tot    0.012  0.011  0.028  0.033  0.019  0.074  0.466  0.221  0.006  0.869
 
band    24 # energy    7.85252190 # occ.  0.00000000
 
ion      s     py     pz     px    dxy    dyz    dz2    dxz  x2-y2    tot
    1  0.000  0.001  0.000  0.000  0.049  0.363  0.000  0.121  0.147  0.682
    2  0.000  0.016  0.000  0.005  0.002  0.003  0.000  0.001  0.005  0.032
    3  0.000  0.036  0.000  0.012  0.000  0.004  0.000  0.001  0.001  0.055
    4  0.000  0.036  0.000  0.012  0.000  0.004  0.000  0.001  0.001  0.055
tot    0.000  0.090  0.000  0.030  0.051  0.374  0.000  0.125  0.154  0.824
 

 k-point    31 :    0.26315789 0.00000000 0.50000000     weight = 0.02500000

band     1 # energy  -44.23179544 # occ.  1.00000000
 
ion      s     py     pz     px    dxy    dyz    dz2    dxz  x2-y2    tot
    1  0.000  0.000  0.000  0.000  0.000  0.000  0.000  0.000  0.000  0.000
    2  0.000  0.245  0.000  0.750  0.000  0.000  0.000  0.000  0.000  0.995
    3  0.000  0.000  0.000  0.000  0.000  0.000  0.000  0.000  0.000  0.000
    4  0.000  0.000  0.000  0.000  0.000  0.000  0.000  0.000  0.000  0.000
tot    0.000  0.245  0.000  0.750  0.000  0.000  0.000  0.000  0.000  0.995
 
band     2 # energy  -44.23139753 # occ.  1.00000000
 
ion      s     py     pz     px    dxy    dyz    dz2    dxz  x2-y2    tot
    1  0.000  0.000  0.000  0.000  0.000  0.000  0.000  0.000  0.000  0.000
    2  0.000  0.750  0.000  0.245  0.000  0.000  0.000  0.000  0.000  0.995
    3  0.000  0.000  0.000  0.000  0.000  0.000  0.000  0.000  0.000  0.000
    4  0.000  0.000  0.000  0.000  0.000  0.000  0.000  0.000  0.000  0.000
tot    0.000  0.750  0.000  0.245  0.000  0.000  0.000  0.000  0.000  0.995
 
band     3 # energy  -44.22822840 # occ.  1.00000000
 
ion      s     py     pz     px    dxy    dyz    dz2    dxz  x2-y2    tot
    1  0.000  0.000  0.000  0.000  0.000  0.000  0.000  0.000  0.000  0.000
    2  0.000  0.000  0.995  0.000  0.000  0.000  0.000  0.000  0.000  0.995
    3  0.000  0.000  0.000  0.000  0.000  0.000  0.000  0.000  0.000  0.000
    4  0.000  0.000  0.000  0.000  0.000  0.000  0.000  0.000  0.000  0.000
tot    0.000  0.000  0.995  0.000  0.000  0.000  0.000  0.000  0.000  0.995
 
band     4 # energy  -39.85050963 # occ.  1.00000000
 
ion      s     py     pz     px    dxy    dyz    dz2    dxz  x2-y2    tot
    1  0.000  0.000  0.995  0.000  0.000  0.000  0.000  0.000  0.000  0.995
    2  0.000  0.000  0.000  0.000  0.000  0.000  0.000  0.000  0.000  0.000
    3  0.000  0.000  0.000  0.000  0.000  0.000  0.000  0.000  0.000  0.000
    4  0.000  0.000  0.000  0.000  0.000  0.000  0.000  0.000  0.000  0.000
tot    0.000  0.000  0.995  0.000  0.000  0.000  0.000  0.000  0.000  0.995
 
band     5 # energy  -39.84440779 # occ.  1.00000000
 
ion      s     py     pz     px    dxy    dyz    dz2    dxz  x2-y2    tot
    1  0.000  0.245  0.000  0.750  0.000  0.000  0.000  0.000  0.000  0.995
    2  0.000  0.000  0.000  0.000  0.000  0.000  0.000  0.000  0.000  0.000
    3  0.000  0.000  0.000  0.000  0.000  0.000  0.000  0.000  0.000  0.000
    4  0.000  0.000  0.000  0.000  0.000  0.000  0.000  0.000  0.000  0.000
tot    0.000  0.245  0.000  0.750  0.000  0.000  0.000  0.000  0.000  0.995
 
band     6 # energy  -39.84381253 # occ.  1.00000000
 
ion      s     py     pz     px    dxy    dyz    dz2    dxz  x2-y2    tot
    1  0.000  0.750  0.000  0.245  0.000  0.000  0.000  0.000  0.000  0.995
    2  0.000  0.000  0.000  0.000  0.000  0.000  0.000  0.000  0.000  0.000
    3  0.000  0.000  0.000  0.000  0.000  0.000  0.000  0.000  0.000  0.000
    4  0.000  0.000  0.000  0.000  0.000  0.000  0.000  0.000  0.000  0.000
tot    0.000  0.750  0.000  0.245  0.000  0.000  0.000  0.000  0.000  0.996
 
band     7 # energy   -5.09933085 # occ.  1.00000000
 
ion      s     py     pz     px    dxy    dyz    dz2    dxz  x2-y2    tot
    1  0.000  0.000  0.003  0.000  0.001  0.001  0.000  0.002  0.000  0.006
    2  0.019  0.001  0.000  0.002  0.000  0.000  0.000  0.000  0.000  0.023
    3  0.306  0.000  0.001  0.001  0.000  0.000  0.000  0.000  0.000  0.307
    4  0.306  0.000  0.001  0.001  0.000  0.000  0.000  0.000  0.000  0.307
tot    0.630  0.001  0.005  0.003  0.001  0.001  0.000  0.002  0.000  0.643
 
band     8 # energy   -5.07545744 # occ.  1.00000000
 
ion      s     py     pz     px    dxy    dyz    dz2    dxz  x2-y2    tot
    1  0.014  0.001  0.000  0.002  0.000  0.000  0.000  0.000  0.000  0.017
    2  0.000  0.000  0.004  0.000  0.001  0.001  0.000  0.003  0.000  0.009
    3  0.308  0.000  0.001  0.000  0.000  0.000  0.000  0.000  0.000  0.310
    4  0.308  0.000  0.001  0.000  0.000  0.000  0.000  0.000  0.000  0.310
tot    0.631  0.001  0.005  0.003  0.001  0.001  0.000  0.003  0.000  0.646
 
band     9 # energy    1.73212979 # occ.  1.00000000
 
ion      s     py     pz     px    dxy    dyz    dz2    dxz  x2-y2    tot
    1  0.041  0.000  0.000  0.000  0.000  0.001  0.000  0.003  0.000  0.046
    2  0.003  0.001  0.001  0.003  0.137  0.016  0.000  0.048  0.046  0.256
    3  0.011  0.016  0.048  0.048  0.000  0.000  0.000  0.000  0.000  0.123
    4  0.011  0.016  0.048  0.048  0.000  0.000  0.000  0.000  0.000  0.123
tot    0.067  0.033  0.098  0.099  0.137  0.017  0.001  0.051  0.046  0.549
 
band    10 # energy    1.85441180 # occ.  1.00000000
 
ion      s     py     pz     px    dxy    dyz    dz2    dxz  x2-y2    tot
    1  0.003  0.001  0.001  0.003  0.018  0.003  0.000  0.009  0.006  0.044
    2  0.077  0.000  0.001  0.000  0.004  0.012  0.005  0.037  0.001  0.138
    3  0.023  0.018  0.053  0.055  0.000  0.000  0.000  0.000  0.000  0.150
    4  0.023  0.018  0.053  0.055  0.000  0.000  0.000  0.000  0.000  0.150
tot    0.126  0.038  0.107  0.113  0.023  0.015  0.005  0.046  0.008  0.482
 
band    11 # energy    2.72315529 # occ.  1.00000000
 
ion      s     py     pz     px    dxy    dyz    dz2    dxz  x2-y2    tot
    1  0.000  0.002  0.000  0.001  0.000  0.000  0.000  0.000  0.001  0.005
    2  0.000  0.000  0.000  0.000  0.047  0.358  0.000  0.119  0.142  0.667
    3  0.000  0.044  0.000  0.015  0.000  0.000  0.000  0.000  0.001  0.060
    4  0.000  0.044  0.000  0.015  0.000  0.000  0.000  0.000  0.001  0.060
tot    0.000  0.091  0.000  0.030  0.048  0.359  0.000  0.120  0.144  0.793
 
band    12 # energy    2.73480914 # occ.  1.00000000
 
ion      s     py     pz     px    dxy    dyz    dz2    dxz  x2-y2    tot
    1  0.000  0.000  0.010  0.000  0.000  0.000  0.000  0.000  0.000  0.010
    2  0.000  0.002  0.000  0.005  0.000  0.018  0.513  0.055  0.000  0.593
    3  0.000  0.006  0.032  0.018  0.000  0.000  0.001  0.000  0.000  0.057
    4  0.000  0.006  0.032  0.018  0.000  0.000  0.001  0.000  0.000  0.057
tot    0.001  0.014  0.074  0.041  0.001  0.018  0.515  0.055  0.000  0.718
 
band    13 # energy    3.24111896 # occ.  1.00000000
 
ion      s     py     pz     px    dxy    dyz    dz2    dxz  x2-y2    tot
    1  0.000  0.000  0.000  0.000  0.001  0.005  0.000  0.002  0.002  0.010
    2  0.000  0.002  0.000  0.001  0.140  0.168  0.000  0.056  0.421  0.789
    3  0.000  0.018  0.000  0.006  0.000  0.000  0.000  0.000  0.000  0.025
    4  0.000  0.018  0.000  0.006  0.000  0.000  0.000  0.000  0.000  0.025
tot    0.000  0.039  0.000  0.013  0.141  0.174  0.000  0.058  0.424  0.849
 
band    14 # energy    3.32203642 # occ.  1.00000000
 
ion      s     py     pz     px    dxy    dyz    dz2    dxz  x2-y2    tot
    1  0.001  0.000  0.000  0.001  0.003  0.000  0.001  0.001  0.001  0.009
    2  0.009  0.000  0.000  0.000  0.217  0.108  0.080  0.323  0.072  0.810
    3  0.003  0.001  0.011  0.002  0.001  0.000  0.001  0.000  0.000  0.017
    4  0.003  0.001  0.011  0.002  0.001  0.000  0.001  0.000  0.000  0.017
tot    0.015  0.001  0.022  0.004  0.221  0.108  0.082  0.325  0.074  0.853
 
band    15 # energy    3.76497235 # occ.  1.00000000
 
ion      s     py     pz     px    dxy    dyz    dz2    dxz  x2-y2    tot
    1  0.000  0.003  0.000  0.010  0.001  0.006  0.052  0.018  0.000  0.092
    2  0.007  0.000  0.029  0.000  0.014  0.000  0.000  0.000  0.005  0.055
    3  0.000  0.019  0.089  0.057  0.001  0.000  0.001  0.000  0.000  0.169
    4  0.000  0.019  0.089  0.057  0.001  0.000  0.001  0.000  0.000  0.169
tot    0.007  0.042  0.208  0.126  0.016  0.006  0.054  0.019  0.005  0.484
 
band    16 # energy    4.07655895 # occ.  1.00000000
 
ion      s     py     pz     px    dxy    dyz    dz2    dxz  x2-y2    tot
    1  0.019  0.000  0.001  0.000  0.003  0.000  0.003  0.001  0.001  0.029
    2  0.000  0.002  0.000  0.005  0.273  0.030  0.149  0.090  0.091  0.641
    3  0.016  0.005  0.030  0.014  0.000  0.000  0.000  0.001  0.000  0.066
    4  0.016  0.005  0.030  0.014  0.000  0.000  0.000  0.001  0.000  0.066
tot    0.051  0.011  0.061  0.034  0.277  0.031  0.152  0.092  0.092  0.802
 
band    17 # energy    4.35926023 # occ.  1.00000000
 
ion      s     py     pz     px    dxy    dyz    dz2    dxz  x2-y2    tot
    1  0.000  0.001  0.000  0.000  0.012  0.089  0.000  0.030  0.035  0.167
    2  0.000  0.014  0.000  0.005  0.023  0.024  0.000  0.008  0.068  0.141
    3  0.000  0.120  0.000  0.040  0.000  0.000  0.000  0.000  0.001  0.161
    4  0.000  0.120  0.000  0.040  0.000  0.000  0.000  0.000  0.001  0.161
tot    0.000  0.255  0.000  0.085  0.035  0.114  0.000  0.038  0.105  0.631
 
band    18 # energy    5.00118645 # occ.  1.00000000
 
ion      s     py     pz     px    dxy    dyz    dz2    dxz  x2-y2    tot
    1  0.017  0.000  0.011  0.000  0.004  0.001  0.002  0.003  0.001  0.039
    2  0.001  0.003  0.000  0.009  0.017  0.041  0.157  0.124  0.006  0.359
    3  0.008  0.015  0.069  0.044  0.000  0.000  0.000  0.001  0.000  0.139
    4  0.008  0.015  0.069  0.044  0.000  0.000  0.000  0.001  0.000  0.139
tot    0.034  0.033  0.149  0.098  0.021  0.043  0.160  0.129  0.007  0.674
 
band    19 # energy    5.57646557 # occ.  1.00000000
 
ion      s     py     pz     px    dxy    dyz    dz2    dxz  x2-y2    tot
    1  0.000  0.015  0.000  0.005  0.013  0.013  0.000  0.004  0.040  0.091
    2  0.000  0.002  0.000  0.001  0.016  0.130  0.000  0.043  0.049  0.243
    3  0.000  0.114  0.000  0.038  0.000  0.002  0.000  0.001  0.001  0.156
    4  0.000  0.114  0.000  0.038  0.000  0.002  0.000  0.001  0.001  0.156
tot    0.000  0.246  0.000  0.082  0.030  0.147  0.000  0.049  0.091  0.645
 
band    20 # energy    6.72063443 # occ.  0.00000000
 
ion      s     py     pz     px    dxy    dyz    dz2    dxz  x2-y2    tot
    1  0.013  0.000  0.000  0.000  0.266  0.033  0.124  0.100  0.089  0.626
    2  0.022  0.000  0.005  0.001  0.003  0.002  0.000  0.005  0.001  0.039
    3  0.008  0.000  0.004  0.000  0.004  0.001  0.002  0.002  0.001  0.021
    4  0.008  0.000  0.004  0.000  0.004  0.001  0.002  0.002  0.001  0.021
tot    0.050  0.001  0.013  0.002  0.277  0.036  0.128  0.108  0.092  0.707
 
band    21 # energy    7.22195614 # occ.  0.00000000
 
ion      s     py     pz     px    dxy    dyz    dz2    dxz  x2-y2    tot
    1  0.000  0.000  0.000  0.000  0.183  0.082  0.163  0.246  0.061  0.735
    2  0.044  0.000  0.001  0.001  0.001  0.000  0.000  0.000  0.000  0.047
    3  0.016  0.000  0.003  0.001  0.000  0.001  0.001  0.004  0.000  0.026
    4  0.016  0.000  0.003  0.001  0.000  0.001  0.001  0.004  0.000  0.026
tot    0.076  0.001  0.006  0.003  0.184  0.085  0.165  0.254  0.061  0.835
 
band    22 # energy    7.48775859 # occ.  0.00000000
 
ion      s     py     pz     px    dxy    dyz    dz2    dxz  x2-y2    tot
    1  0.000  0.003  0.000  0.001  0.154  0.128  0.000  0.043  0.463  0.791
    2  0.000  0.000  0.000  0.000  0.001  0.012  0.000  0.004  0.003  0.020
    3  0.000  0.020  0.000  0.007  0.000  0.000  0.000  0.000  0.001  0.027
    4  0.000  0.020  0.000  0.007  0.000  0.000  0.000  0.000  0.001  0.027
tot    0.000  0.042  0.000  0.014  0.156  0.140  0.000  0.047  0.467  0.866
 
band    23 # energy    7.70269057 # occ.  0.00000000
 
ion      s     py     pz     px    dxy    dyz    dz2    dxz  x2-y2    tot
    1  0.000  0.001  0.000  0.003  0.016  0.078  0.456  0.233  0.005  0.793
    2  0.009  0.000  0.000  0.000  0.000  0.000  0.000  0.000  0.000  0.010
    3  0.003  0.004  0.013  0.013  0.000  0.000  0.000  0.001  0.000  0.035
    4  0.003  0.004  0.013  0.013  0.000  0.000  0.000  0.001  0.000  0.035
tot    0.016  0.010  0.027  0.029  0.017  0.078  0.457  0.234  0.006  0.873
 
band    24 # energy    7.81608211 # occ.  0.00000000
 
ion      s     py     pz     px    dxy    dyz    dz2    dxz  x2-y2    tot
    1  0.000  0.001  0.000  0.000  0.034  0.417  0.000  0.139  0.100  0.691
    2  0.000  0.017  0.000  0.006  0.002  0.002  0.000  0.001  0.005  0.032
    3  0.000  0.033  0.000  0.011  0.000  0.005  0.000  0.002  0.001  0.051
    4  0.000  0.033  0.000  0.011  0.000  0.005  0.000  0.002  0.001  0.051
tot    0.000  0.083  0.000  0.028  0.036  0.428  0.000  0.143  0.108  0.825
 

 k-point    32 :    0.28947368 0.00000000 0.50000000     weight = 0.02500000

band     1 # energy  -44.23186558 # occ.  1.00000000
 
ion      s     py     pz     px    dxy    dyz    dz2    dxz  x2-y2    tot
    1  0.000  0.000  0.000  0.000  0.000  0.000  0.000  0.000  0.000  0.000
    2  0.000  0.246  0.000  0.750  0.000  0.000  0.000  0.000  0.000  0.995
    3  0.000  0.000  0.000  0.000  0.000  0.000  0.000  0.000  0.000  0.000
    4  0.000  0.000  0.000  0.000  0.000  0.000  0.000  0.000  0.000  0.000
tot    0.000  0.246  0.000  0.750  0.000  0.000  0.000  0.000  0.000  0.995
 
band     2 # energy  -44.23140410 # occ.  1.00000000
 
ion      s     py     pz     px    dxy    dyz    dz2    dxz  x2-y2    tot
    1  0.000  0.000  0.000  0.000  0.000  0.000  0.000  0.000  0.000  0.000
    2  0.000  0.750  0.000  0.246  0.000  0.000  0.000  0.000  0.000  0.995
    3  0.000  0.000  0.000  0.000  0.000  0.000  0.000  0.000  0.000  0.000
    4  0.000  0.000  0.000  0.000  0.000  0.000  0.000  0.000  0.000  0.000
tot    0.000  0.750  0.000  0.246  0.000  0.000  0.000  0.000  0.000  0.995
 
band     3 # energy  -44.22820971 # occ.  1.00000000
 
ion      s     py     pz     px    dxy    dyz    dz2    dxz  x2-y2    tot
    1  0.000  0.000  0.000  0.000  0.000  0.000  0.000  0.000  0.000  0.000
    2  0.000  0.000  0.995  0.000  0.000  0.000  0.000  0.000  0.000  0.995
    3  0.000  0.000  0.000  0.000  0.000  0.000  0.000  0.000  0.000  0.000
    4  0.000  0.000  0.000  0.000  0.000  0.000  0.000  0.000  0.000  0.000
tot    0.000  0.000  0.995  0.000  0.000  0.000  0.000  0.000  0.000  0.995
 
band     4 # energy  -39.85048157 # occ.  1.00000000
 
ion      s     py     pz     px    dxy    dyz    dz2    dxz  x2-y2    tot
    1  0.000  0.000  0.995  0.000  0.000  0.000  0.000  0.000  0.000  0.995
    2  0.000  0.000  0.000  0.000  0.000  0.000  0.000  0.000  0.000  0.000
    3  0.000  0.000  0.000  0.000  0.000  0.000  0.000  0.000  0.000  0.000
    4  0.000  0.000  0.000  0.000  0.000  0.000  0.000  0.000  0.000  0.000
tot    0.000  0.000  0.995  0.000  0.000  0.000  0.000  0.000  0.000  0.995
 
band     5 # energy  -39.84451300 # occ.  1.00000000
 
ion      s     py     pz     px    dxy    dyz    dz2    dxz  x2-y2    tot
    1  0.000  0.246  0.000  0.750  0.000  0.000  0.000  0.000  0.000  0.995
    2  0.000  0.000  0.000  0.000  0.000  0.000  0.000  0.000  0.000  0.000
    3  0.000  0.000  0.000  0.000  0.000  0.000  0.000  0.000  0.000  0.000
    4  0.000  0.000  0.000  0.000  0.000  0.000  0.000  0.000  0.000  0.000
tot    0.000  0.246  0.000  0.750  0.000  0.000  0.000  0.000  0.000  0.995
 
band     6 # energy  -39.84382383 # occ.  1.00000000
 
ion      s     py     pz     px    dxy    dyz    dz2    dxz  x2-y2    tot
    1  0.000  0.750  0.000  0.246  0.000  0.000  0.000  0.000  0.000  0.996
    2  0.000  0.000  0.000  0.000  0.000  0.000  0.000  0.000  0.000  0.000
    3  0.000  0.000  0.000  0.000  0.000  0.000  0.000  0.000  0.000  0.000
    4  0.000  0.000  0.000  0.000  0.000  0.000  0.000  0.000  0.000  0.000
tot    0.000  0.750  0.000  0.246  0.000  0.000  0.000  0.000  0.000  0.996
 
band     7 # energy   -5.03285360 # occ.  1.00000000
 
ion      s     py     pz     px    dxy    dyz    dz2    dxz  x2-y2    tot
    1  0.000  0.000  0.003  0.000  0.001  0.001  0.000  0.002  0.000  0.007
    2  0.016  0.001  0.000  0.002  0.001  0.000  0.000  0.001  0.000  0.021
    3  0.309  0.000  0.001  0.001  0.000  0.000  0.000  0.000  0.000  0.310
    4  0.309  0.000  0.001  0.001  0.000  0.000  0.000  0.000  0.000  0.310
tot    0.635  0.001  0.004  0.004  0.001  0.001  0.000  0.003  0.000  0.649
 
band     8 # energy   -5.01234840 # occ.  1.00000000
 
ion      s     py     pz     px    dxy    dyz    dz2    dxz  x2-y2    tot
    1  0.012  0.001  0.000  0.002  0.000  0.000  0.000  0.001  0.000  0.016
    2  0.000  0.000  0.003  0.001  0.001  0.001  0.000  0.003  0.000  0.010
    3  0.311  0.000  0.001  0.000  0.000  0.000  0.000  0.000  0.000  0.313
    4  0.311  0.000  0.001  0.000  0.000  0.000  0.000  0.000  0.000  0.313
tot    0.636  0.001  0.005  0.003  0.001  0.001  0.000  0.003  0.000  0.651
 
band     9 # energy    1.62776183 # occ.  1.00000000
 
ion      s     py     pz     px    dxy    dyz    dz2    dxz  x2-y2    tot
    1  0.036  0.000  0.001  0.001  0.000  0.002  0.000  0.005  0.000  0.046
    2  0.014  0.001  0.002  0.004  0.124  0.008  0.000  0.023  0.041  0.217
    3  0.012  0.018  0.045  0.053  0.000  0.000  0.000  0.000  0.000  0.127
    4  0.012  0.018  0.045  0.053  0.000  0.000  0.000  0.000  0.000  0.127
tot    0.074  0.037  0.092  0.111  0.124  0.009  0.001  0.028  0.041  0.518
 
band    10 # energy    1.70997248 # occ.  1.00000000
 
ion      s     py     pz     px    dxy    dyz    dz2    dxz  x2-y2    tot
    1  0.011  0.001  0.001  0.003  0.017  0.002  0.000  0.005  0.006  0.046
    2  0.065  0.000  0.002  0.001  0.000  0.018  0.001  0.053  0.000  0.139
    3  0.019  0.021  0.042  0.063  0.000  0.000  0.000  0.000  0.000  0.145
    4  0.019  0.021  0.042  0.063  0.000  0.000  0.000  0.000  0.000  0.145
tot    0.114  0.043  0.086  0.130  0.017  0.019  0.001  0.058  0.006  0.475
 
band    11 # energy    2.71250616 # occ.  1.00000000
 
ion      s     py     pz     px    dxy    dyz    dz2    dxz  x2-y2    tot
    1  0.000  0.003  0.000  0.001  0.000  0.000  0.000  0.000  0.001  0.005
    2  0.000  0.000  0.000  0.000  0.038  0.381  0.000  0.127  0.114  0.660
    3  0.000  0.045  0.000  0.015  0.000  0.000  0.000  0.000  0.001  0.062
    4  0.000  0.045  0.000  0.015  0.000  0.000  0.000  0.000  0.001  0.062
tot    0.000  0.094  0.000  0.031  0.038  0.382  0.000  0.127  0.115  0.788
 
band    12 # energy    2.73524682 # occ.  1.00000000
 
ion      s     py     pz     px    dxy    dyz    dz2    dxz  x2-y2    tot
    1  0.000  0.000  0.010  0.000  0.000  0.000  0.000  0.000  0.000  0.011
    2  0.000  0.002  0.000  0.006  0.004  0.017  0.503  0.050  0.001  0.583
    3  0.001  0.004  0.040  0.013  0.000  0.000  0.001  0.000  0.000  0.060
    4  0.001  0.004  0.040  0.013  0.000  0.000  0.001  0.000  0.000  0.060
tot    0.001  0.011  0.091  0.032  0.006  0.017  0.504  0.050  0.002  0.714
 
band    13 # energy    3.25607999 # occ.  1.00000000
 
ion      s     py     pz     px    dxy    dyz    dz2    dxz  x2-y2    tot
    1  0.000  0.000  0.000  0.000  0.001  0.006  0.000  0.002  0.002  0.011
    2  0.000  0.002  0.000  0.001  0.150  0.135  0.000  0.045  0.450  0.783
    3  0.000  0.020  0.000  0.007  0.000  0.000  0.000  0.000  0.000  0.027
    4  0.000  0.020  0.000  0.007  0.000  0.000  0.000  0.000  0.000  0.027
tot    0.000  0.042  0.000  0.014  0.151  0.141  0.000  0.047  0.452  0.847
 
band    14 # energy    3.31639190 # occ.  1.00000000
 
ion      s     py     pz     px    dxy    dyz    dz2    dxz  x2-y2    tot
    1  0.001  0.000  0.000  0.001  0.003  0.000  0.001  0.001  0.001  0.008
    2  0.008  0.000  0.000  0.000  0.194  0.116  0.077  0.348  0.065  0.809
    3  0.002  0.000  0.012  0.001  0.001  0.000  0.001  0.000  0.000  0.018
    4  0.002  0.000  0.012  0.001  0.001  0.000  0.001  0.000  0.000  0.018
tot    0.014  0.001  0.024  0.004  0.198  0.117  0.079  0.350  0.066  0.852
 
band    15 # energy    3.66529413 # occ.  1.00000000
 
ion      s     py     pz     px    dxy    dyz    dz2    dxz  x2-y2    tot
    1  0.003  0.003  0.000  0.008  0.001  0.007  0.034  0.021  0.000  0.077
    2  0.009  0.000  0.024  0.001  0.099  0.003  0.024  0.008  0.033  0.199
    3  0.002  0.019  0.061  0.057  0.001  0.000  0.001  0.000  0.000  0.141
    4  0.002  0.019  0.061  0.057  0.001  0.000  0.001  0.000  0.000  0.141
tot    0.016  0.041  0.146  0.123  0.101  0.010  0.059  0.029  0.034  0.558
 
band    16 # energy    4.05688227 # occ.  1.00000000
 
ion      s     py     pz     px    dxy    dyz    dz2    dxz  x2-y2    tot
    1  0.011  0.001  0.001  0.002  0.005  0.000  0.017  0.001  0.002  0.040
    2  0.000  0.002  0.005  0.005  0.215  0.019  0.164  0.056  0.072  0.537
    3  0.011  0.003  0.063  0.008  0.000  0.000  0.000  0.001  0.000  0.086
    4  0.011  0.003  0.063  0.008  0.000  0.000  0.000  0.001  0.000  0.086
tot    0.034  0.007  0.131  0.022  0.221  0.019  0.181  0.058  0.074  0.748
 
band    17 # energy    4.30464615 # occ.  1.00000000
 
ion      s     py     pz     px    dxy    dyz    dz2    dxz  x2-y2    tot
    1  0.000  0.001  0.000  0.000  0.009  0.089  0.000  0.030  0.028  0.157
    2  0.000  0.015  0.000  0.005  0.026  0.021  0.000  0.007  0.077  0.152
    3  0.000  0.119  0.000  0.040  0.000  0.000  0.000  0.000  0.001  0.160
    4  0.000  0.119  0.000  0.040  0.000  0.000  0.000  0.000  0.001  0.160
tot    0.000  0.254  0.000  0.085  0.036  0.111  0.000  0.037  0.107  0.629
 
band    18 # energy    5.04118999 # occ.  1.00000000
 
ion      s     py     pz     px    dxy    dyz    dz2    dxz  x2-y2    tot
    1  0.020  0.000  0.010  0.000  0.001  0.002  0.005  0.005  0.000  0.042
    2  0.000  0.003  0.000  0.009  0.025  0.046  0.137  0.139  0.008  0.368
    3  0.010  0.012  0.074  0.037  0.000  0.000  0.001  0.001  0.000  0.135
    4  0.010  0.012  0.074  0.037  0.000  0.000  0.001  0.001  0.000  0.135
tot    0.039  0.027  0.159  0.082  0.026  0.049  0.143  0.146  0.009  0.680
 
band    19 # energy    5.53192122 # occ.  1.00000000
 
ion      s     py     pz     px    dxy    dyz    dz2    dxz  x2-y2    tot
    1  0.000  0.017  0.000  0.006  0.012  0.008  0.000  0.003  0.037  0.082
    2  0.000  0.002  0.000  0.001  0.014  0.145  0.000  0.048  0.042  0.252
    3  0.000  0.114  0.000  0.038  0.000  0.002  0.000  0.001  0.000  0.155
    4  0.000  0.114  0.000  0.038  0.000  0.002  0.000  0.001  0.000  0.155
tot    0.000  0.246  0.000  0.082  0.026  0.158  0.000  0.053  0.079  0.644
 
band    20 # energy    6.68604346 # occ.  0.00000000
 
ion      s     py     pz     px    dxy    dyz    dz2    dxz  x2-y2    tot
    1  0.012  0.000  0.000  0.001  0.257  0.035  0.122  0.104  0.086  0.616
    2  0.023  0.000  0.005  0.001  0.004  0.002  0.000  0.005  0.001  0.040
    3  0.007  0.000  0.004  0.000  0.004  0.001  0.002  0.002  0.001  0.021
    4  0.007  0.000  0.004  0.000  0.004  0.001  0.002  0.002  0.001  0.021
tot    0.050  0.000  0.013  0.001  0.269  0.037  0.126  0.112  0.090  0.699
 
band    21 # energy    7.23414203 # occ.  0.00000000
 
ion      s     py     pz     px    dxy    dyz    dz2    dxz  x2-y2    tot
    1  0.000  0.000  0.000  0.000  0.187  0.073  0.188  0.218  0.062  0.729
    2  0.045  0.000  0.001  0.000  0.001  0.000  0.001  0.000  0.000  0.049
    3  0.015  0.001  0.003  0.002  0.000  0.001  0.001  0.004  0.000  0.027
    4  0.015  0.001  0.003  0.002  0.000  0.001  0.001  0.004  0.000  0.027
tot    0.076  0.001  0.007  0.004  0.188  0.075  0.190  0.226  0.063  0.831
 
band    22 # energy    7.48917527 # occ.  0.00000000
 
ion      s     py     pz     px    dxy    dyz    dz2    dxz  x2-y2    tot
    1  0.000  0.003  0.000  0.001  0.174  0.078  0.000  0.026  0.523  0.805
    2  0.000  0.000  0.000  0.000  0.001  0.011  0.000  0.004  0.002  0.018
    3  0.000  0.016  0.000  0.005  0.000  0.000  0.000  0.000  0.001  0.023
    4  0.000  0.016  0.000  0.005  0.000  0.000  0.000  0.000  0.001  0.023
tot    0.000  0.036  0.000  0.012  0.176  0.090  0.000  0.030  0.527  0.870
 
band    23 # energy    7.72934499 # occ.  0.00000000
 
ion      s     py     pz     px    dxy    dyz    dz2    dxz  x2-y2    tot
    1  0.000  0.001  0.000  0.004  0.014  0.083  0.438  0.249  0.005  0.794
    2  0.013  0.000  0.000  0.000  0.000  0.000  0.000  0.000  0.000  0.014
    3  0.005  0.003  0.012  0.010  0.000  0.000  0.000  0.001  0.000  0.032
    4  0.005  0.003  0.012  0.010  0.000  0.000  0.000  0.001  0.000  0.032
tot    0.023  0.008  0.025  0.025  0.014  0.084  0.438  0.251  0.005  0.873
 
band    24 # energy    7.78884894 # occ.  0.00000000
 
ion      s     py     pz     px    dxy    dyz    dz2    dxz  x2-y2    tot
    1  0.000  0.000  0.000  0.000  0.019  0.470  0.000  0.157  0.055  0.701
    2  0.000  0.017  0.000  0.006  0.002  0.001  0.000  0.000  0.005  0.031
    3  0.000  0.030  0.000  0.010  0.000  0.005  0.000  0.002  0.001  0.047
    4  0.000  0.030  0.000  0.010  0.000  0.005  0.000  0.002  0.001  0.047
tot    0.000  0.077  0.000  0.026  0.021  0.480  0.000  0.160  0.063  0.827
 

 k-point    33 :    0.31578947 0.00000000 0.50000000     weight = 0.02500000

band     1 # energy  -44.23193678 # occ.  1.00000000
 
ion      s     py     pz     px    dxy    dyz    dz2    dxz  x2-y2    tot
    1  0.000  0.000  0.000  0.000  0.000  0.000  0.000  0.000  0.000  0.000
    2  0.000  0.246  0.000  0.749  0.000  0.000  0.000  0.000  0.000  0.995
    3  0.000  0.000  0.000  0.000  0.000  0.000  0.000  0.000  0.000  0.000
    4  0.000  0.000  0.000  0.000  0.000  0.000  0.000  0.000  0.000  0.000
tot    0.000  0.246  0.000  0.749  0.000  0.000  0.000  0.000  0.000  0.995
 
band     2 # energy  -44.23143136 # occ.  1.00000000
 
ion      s     py     pz     px    dxy    dyz    dz2    dxz  x2-y2    tot
    1  0.000  0.000  0.000  0.000  0.000  0.000  0.000  0.000  0.000  0.000
    2  0.000  0.749  0.000  0.246  0.000  0.000  0.000  0.000  0.000  0.995
    3  0.000  0.000  0.000  0.000  0.000  0.000  0.000  0.000  0.000  0.000
    4  0.000  0.000  0.000  0.000  0.000  0.000  0.000  0.000  0.000  0.000
tot    0.000  0.749  0.000  0.246  0.000  0.000  0.000  0.000  0.000  0.995
 
band     3 # energy  -44.22820404 # occ.  1.00000000
 
ion      s     py     pz     px    dxy    dyz    dz2    dxz  x2-y2    tot
    1  0.000  0.000  0.000  0.000  0.000  0.000  0.000  0.000  0.000  0.000
    2  0.000  0.000  0.995  0.000  0.000  0.000  0.000  0.000  0.000  0.995
    3  0.000  0.000  0.000  0.000  0.000  0.000  0.000  0.000  0.000  0.000
    4  0.000  0.000  0.000  0.000  0.000  0.000  0.000  0.000  0.000  0.000
tot    0.000  0.000  0.995  0.000  0.000  0.000  0.000  0.000  0.000  0.995
 
band     4 # energy  -39.85047130 # occ.  1.00000000
 
ion      s     py     pz     px    dxy    dyz    dz2    dxz  x2-y2    tot
    1  0.000  0.000  0.995  0.000  0.000  0.000  0.000  0.000  0.000  0.995
    2  0.000  0.000  0.000  0.000  0.000  0.000  0.000  0.000  0.000  0.000
    3  0.000  0.000  0.000  0.000  0.000  0.000  0.000  0.000  0.000  0.000
    4  0.000  0.000  0.000  0.000  0.000  0.000  0.000  0.000  0.000  0.000
tot    0.000  0.000  0.995  0.000  0.000  0.000  0.000  0.000  0.000  0.995
 
band     5 # energy  -39.84461949 # occ.  1.00000000
 
ion      s     py     pz     px    dxy    dyz    dz2    dxz  x2-y2    tot
    1  0.000  0.246  0.000  0.750  0.000  0.000  0.000  0.000  0.000  0.995
    2  0.000  0.000  0.000  0.000  0.000  0.000  0.000  0.000  0.000  0.000
    3  0.000  0.000  0.000  0.000  0.000  0.000  0.000  0.000  0.000  0.000
    4  0.000  0.000  0.000  0.000  0.000  0.000  0.000  0.000  0.000  0.000
tot    0.000  0.246  0.000  0.750  0.000  0.000  0.000  0.000  0.000  0.995
 
band     6 # energy  -39.84386286 # occ.  1.00000000
 
ion      s     py     pz     px    dxy    dyz    dz2    dxz  x2-y2    tot
    1  0.000  0.750  0.000  0.246  0.000  0.000  0.000  0.000  0.000  0.995
    2  0.000  0.000  0.000  0.000  0.000  0.000  0.000  0.000  0.000  0.000
    3  0.000  0.000  0.000  0.000  0.000  0.000  0.000  0.000  0.000  0.000
    4  0.000  0.000  0.000  0.000  0.000  0.000  0.000  0.000  0.000  0.000
tot    0.000  0.750  0.000  0.246  0.000  0.000  0.000  0.000  0.000  0.996
 
band     7 # energy   -4.96713401 # occ.  1.00000000
 
ion      s     py     pz     px    dxy    dyz    dz2    dxz  x2-y2    tot
    1  0.001  0.000  0.002  0.001  0.001  0.001  0.000  0.002  0.000  0.007
    2  0.014  0.001  0.000  0.002  0.001  0.001  0.000  0.002  0.000  0.020
    3  0.313  0.000  0.001  0.000  0.000  0.000  0.000  0.000  0.000  0.314
    4  0.313  0.000  0.001  0.000  0.000  0.000  0.000  0.000  0.000  0.314
tot    0.640  0.001  0.003  0.004  0.002  0.001  0.000  0.003  0.001  0.655
 
band     8 # energy   -4.94927440 # occ.  1.00000000
 
ion      s     py     pz     px    dxy    dyz    dz2    dxz  x2-y2    tot
    1  0.010  0.001  0.000  0.002  0.001  0.000  0.000  0.001  0.000  0.015
    2  0.001  0.000  0.003  0.001  0.001  0.001  0.000  0.003  0.000  0.010
    3  0.315  0.000  0.001  0.000  0.000  0.000  0.000  0.000  0.000  0.316
    4  0.315  0.000  0.001  0.000  0.000  0.000  0.000  0.000  0.000  0.316
tot    0.641  0.001  0.004  0.004  0.002  0.001  0.000  0.004  0.001  0.657
 
band     9 # energy    1.50616352 # occ.  1.00000000
 
ion      s     py     pz     px    dxy    dyz    dz2    dxz  x2-y2    tot
    1  0.017  0.001  0.003  0.003  0.003  0.003  0.000  0.008  0.001  0.038
    2  0.047  0.001  0.001  0.002  0.090  0.000  0.001  0.001  0.030  0.173
    3  0.013  0.020  0.039  0.060  0.000  0.000  0.000  0.000  0.000  0.133
    4  0.013  0.020  0.039  0.060  0.000  0.000  0.000  0.000  0.000  0.133
tot    0.091  0.042  0.082  0.126  0.092  0.003  0.002  0.009  0.031  0.477
 
band    10 # energy    1.58019421 # occ.  1.00000000
 
ion      s     py     pz     px    dxy    dyz    dz2    dxz  x2-y2    tot
    1  0.033  0.001  0.001  0.002  0.012  0.000  0.000  0.001  0.004  0.053
    2  0.033  0.001  0.004  0.003  0.016  0.021  0.000  0.063  0.005  0.147
    3  0.013  0.022  0.036  0.067  0.000  0.000  0.000  0.000  0.000  0.138
    4  0.013  0.022  0.036  0.067  0.000  0.000  0.000  0.000  0.000  0.138
tot    0.091  0.046  0.077  0.138  0.029  0.021  0.000  0.064  0.010  0.475
 
band    11 # energy    2.69953442 # occ.  1.00000000
 
ion      s     py     pz     px    dxy    dyz    dz2    dxz  x2-y2    tot
    1  0.000  0.003  0.000  0.001  0.000  0.000  0.000  0.000  0.001  0.005
    2  0.000  0.000  0.000  0.000  0.030  0.399  0.000  0.133  0.091  0.652
    3  0.000  0.047  0.000  0.016  0.000  0.000  0.000  0.000  0.001  0.063
    4  0.000  0.047  0.000  0.016  0.000  0.000  0.000  0.000  0.001  0.063
tot    0.000  0.096  0.000  0.032  0.031  0.399  0.000  0.133  0.092  0.784
 
band    12 # energy    2.73930391 # occ.  1.00000000
 
ion      s     py     pz     px    dxy    dyz    dz2    dxz  x2-y2    tot
    1  0.000  0.000  0.009  0.000  0.001  0.000  0.000  0.000  0.000  0.012
    2  0.000  0.002  0.000  0.006  0.018  0.018  0.471  0.053  0.006  0.572
    3  0.001  0.004  0.046  0.011  0.001  0.000  0.001  0.000  0.000  0.064
    4  0.001  0.004  0.046  0.011  0.001  0.000  0.001  0.000  0.000  0.064
tot    0.002  0.010  0.102  0.029  0.020  0.018  0.472  0.053  0.007  0.711
 
band    13 # energy    3.27797082 # occ.  1.00000000
 
ion      s     py     pz     px    dxy    dyz    dz2    dxz  x2-y2    tot
    1  0.000  0.000  0.000  0.000  0.001  0.007  0.000  0.002  0.002  0.011
    2  0.000  0.003  0.000  0.001  0.158  0.108  0.000  0.036  0.475  0.781
    3  0.000  0.020  0.000  0.007  0.000  0.000  0.000  0.000  0.000  0.028
    4  0.000  0.020  0.000  0.007  0.000  0.000  0.000  0.000  0.000  0.028
tot    0.000  0.044  0.000  0.015  0.159  0.116  0.000  0.039  0.477  0.848
 
band    14 # energy    3.30957929 # occ.  1.00000000
 
ion      s     py     pz     px    dxy    dyz    dz2    dxz  x2-y2    tot
    1  0.000  0.000  0.000  0.001  0.002  0.000  0.001  0.001  0.001  0.008
    2  0.006  0.000  0.001  0.000  0.155  0.125  0.086  0.376  0.052  0.801
    3  0.002  0.001  0.014  0.002  0.000  0.000  0.001  0.000  0.000  0.020
    4  0.002  0.001  0.014  0.002  0.000  0.000  0.001  0.000  0.000  0.020
tot    0.011  0.002  0.028  0.005  0.158  0.126  0.089  0.377  0.053  0.848
 
band    15 # energy    3.55038009 # occ.  1.00000000
 
ion      s     py     pz     px    dxy    dyz    dz2    dxz  x2-y2    tot
    1  0.006  0.002  0.000  0.006  0.001  0.007  0.022  0.020  0.000  0.065
    2  0.012  0.000  0.018  0.000  0.177  0.002  0.061  0.007  0.059  0.336
    3  0.003  0.015  0.048  0.046  0.001  0.000  0.000  0.000  0.000  0.114
    4  0.003  0.015  0.048  0.046  0.001  0.000  0.000  0.000  0.000  0.114
tot    0.022  0.033  0.114  0.098  0.180  0.009  0.084  0.028  0.060  0.629
 
band    16 # energy    4.06165678 # occ.  1.00000000
 
ion      s     py     pz     px    dxy    dyz    dz2    dxz  x2-y2    tot
    1  0.005  0.001  0.001  0.004  0.008  0.002  0.022  0.005  0.003  0.051
    2  0.000  0.002  0.008  0.006  0.170  0.009  0.174  0.027  0.057  0.452
    3  0.007  0.004  0.079  0.011  0.000  0.000  0.000  0.000  0.000  0.102
    4  0.007  0.004  0.079  0.011  0.000  0.000  0.000  0.000  0.000  0.102
tot    0.019  0.010  0.168  0.031  0.179  0.011  0.197  0.032  0.060  0.706
 
band    17 # energy    4.24339562 # occ.  1.00000000
 
ion      s     py     pz     px    dxy    dyz    dz2    dxz  x2-y2    tot
    1  0.000  0.000  0.000  0.000  0.007  0.089  0.000  0.030  0.022  0.149
    2  0.000  0.016  0.000  0.005  0.028  0.018  0.000  0.006  0.085  0.158
    3  0.000  0.118  0.000  0.039  0.000  0.000  0.000  0.000  0.001  0.159
    4  0.000  0.118  0.000  0.039  0.000  0.000  0.000  0.000  0.001  0.159
tot    0.000  0.253  0.000  0.084  0.036  0.107  0.000  0.036  0.108  0.625
 
band    18 # energy    5.10218279 # occ.  1.00000000
 
ion      s     py     pz     px    dxy    dyz    dz2    dxz  x2-y2    tot
    1  0.021  0.000  0.009  0.000  0.000  0.002  0.009  0.006  0.000  0.048
    2  0.000  0.003  0.001  0.008  0.036  0.050  0.112  0.150  0.012  0.372
    3  0.012  0.010  0.079  0.029  0.000  0.001  0.001  0.002  0.000  0.133
    4  0.012  0.010  0.079  0.029  0.000  0.001  0.001  0.002  0.000  0.133
tot    0.044  0.022  0.168  0.067  0.037  0.053  0.122  0.159  0.012  0.685
 
band    19 # energy    5.49920153 # occ.  1.00000000
 
ion      s     py     pz     px    dxy    dyz    dz2    dxz  x2-y2    tot
    1  0.000  0.018  0.000  0.006  0.011  0.005  0.000  0.002  0.032  0.073
    2  0.000  0.001  0.000  0.000  0.012  0.160  0.000  0.053  0.035  0.261
    3  0.000  0.114  0.000  0.038  0.000  0.002  0.000  0.001  0.000  0.155
    4  0.000  0.114  0.000  0.038  0.000  0.002  0.000  0.001  0.000  0.155
tot    0.000  0.246  0.000  0.082  0.022  0.169  0.000  0.056  0.067  0.644
 
band    20 # energy    6.65825358 # occ.  0.00000006
 
ion      s     py     pz     px    dxy    dyz    dz2    dxz  x2-y2    tot
    1  0.011  0.000  0.000  0.001  0.239  0.038  0.127  0.114  0.080  0.610
    2  0.022  0.000  0.005  0.000  0.005  0.002  0.000  0.005  0.002  0.040
    3  0.007  0.000  0.005  0.000  0.004  0.001  0.002  0.002  0.001  0.021
    4  0.007  0.000  0.005  0.000  0.004  0.001  0.002  0.002  0.001  0.021
tot    0.047  0.000  0.014  0.001  0.252  0.041  0.131  0.122  0.084  0.693
 
band    21 # energy    7.26092650 # occ.  0.00000000
 
ion      s     py     pz     px    dxy    dyz    dz2    dxz  x2-y2    tot
    1  0.000  0.000  0.001  0.000  0.199  0.059  0.216  0.178  0.066  0.719
    2  0.046  0.000  0.001  0.000  0.001  0.000  0.002  0.000  0.000  0.051
    3  0.014  0.001  0.004  0.003  0.000  0.001  0.001  0.004  0.000  0.028
    4  0.014  0.001  0.004  0.003  0.000  0.001  0.001  0.004  0.000  0.028
tot    0.075  0.002  0.009  0.006  0.200  0.062  0.219  0.186  0.067  0.825
 
band    22 # energy    7.48029840 # occ.  0.00000000
 
ion      s     py     pz     px    dxy    dyz    dz2    dxz  x2-y2    tot
    1  0.000  0.003  0.000  0.001  0.191  0.039  0.000  0.013  0.572  0.817
    2  0.000  0.001  0.000  0.000  0.000  0.010  0.000  0.003  0.001  0.016
    3  0.000  0.013  0.000  0.004  0.000  0.001  0.000  0.000  0.001  0.020
    4  0.000  0.013  0.000  0.004  0.000  0.001  0.000  0.000  0.001  0.020
tot    0.000  0.030  0.000  0.010  0.191  0.050  0.000  0.017  0.574  0.872
 
band    23 # energy    7.75047426 # occ.  0.00000000
 
ion      s     py     pz     px    dxy    dyz    dz2    dxz  x2-y2    tot
    1  0.002  0.002  0.000  0.005  0.011  0.089  0.407  0.267  0.004  0.785
    2  0.020  0.000  0.000  0.000  0.000  0.000  0.000  0.000  0.000  0.020
    3  0.006  0.003  0.011  0.008  0.000  0.000  0.000  0.001  0.000  0.031
    4  0.006  0.003  0.011  0.008  0.000  0.000  0.000  0.001  0.000  0.031
tot    0.034  0.007  0.023  0.021  0.011  0.090  0.407  0.270  0.004  0.867
 
band    24 # energy    7.77059036 # occ.  0.00000000
 
ion      s     py     pz     px    dxy    dyz    dz2    dxz  x2-y2    tot
    1  0.000  0.000  0.000  0.000  0.008  0.511  0.000  0.170  0.023  0.712
    2  0.000  0.017  0.000  0.006  0.002  0.000  0.000  0.000  0.005  0.030
    3  0.000  0.027  0.000  0.009  0.000  0.005  0.000  0.002  0.001  0.043
    4  0.000  0.027  0.000  0.009  0.000  0.005  0.000  0.002  0.001  0.043
tot    0.000  0.072  0.000  0.024  0.010  0.521  0.000  0.174  0.029  0.829
 

 k-point    34 :    0.34210526 0.00000000 0.50000000     weight = 0.02500000

band     1 # energy  -44.23198976 # occ.  1.00000000
 
ion      s     py     pz     px    dxy    dyz    dz2    dxz  x2-y2    tot
    1  0.000  0.000  0.000  0.000  0.000  0.000  0.000  0.000  0.000  0.000
    2  0.000  0.246  0.000  0.749  0.000  0.000  0.000  0.000  0.000  0.995
    3  0.000  0.000  0.000  0.000  0.000  0.000  0.000  0.000  0.000  0.000
    4  0.000  0.000  0.000  0.000  0.000  0.000  0.000  0.000  0.000  0.000
tot    0.000  0.246  0.000  0.749  0.000  0.000  0.000  0.000  0.000  0.995
 
band     2 # energy  -44.23144784 # occ.  1.00000000
 
ion      s     py     pz     px    dxy    dyz    dz2    dxz  x2-y2    tot
    1  0.000  0.000  0.000  0.000  0.000  0.000  0.000  0.000  0.000  0.000
    2  0.000  0.749  0.000  0.246  0.000  0.000  0.000  0.000  0.000  0.995
    3  0.000  0.000  0.000  0.000  0.000  0.000  0.000  0.000  0.000  0.000
    4  0.000  0.000  0.000  0.000  0.000  0.000  0.000  0.000  0.000  0.000
tot    0.000  0.749  0.000  0.246  0.000  0.000  0.000  0.000  0.000  0.995
 
band     3 # energy  -44.22818734 # occ.  1.00000000
 
ion      s     py     pz     px    dxy    dyz    dz2    dxz  x2-y2    tot
    1  0.000  0.000  0.000  0.000  0.000  0.000  0.000  0.000  0.000  0.000
    2  0.000  0.000  0.995  0.000  0.000  0.000  0.000  0.000  0.000  0.995
    3  0.000  0.000  0.000  0.000  0.000  0.000  0.000  0.000  0.000  0.000
    4  0.000  0.000  0.000  0.000  0.000  0.000  0.000  0.000  0.000  0.000
tot    0.000  0.000  0.995  0.000  0.000  0.000  0.000  0.000  0.000  0.995
 
band     4 # energy  -39.85044606 # occ.  1.00000000
 
ion      s     py     pz     px    dxy    dyz    dz2    dxz  x2-y2    tot
    1  0.000  0.000  0.995  0.000  0.000  0.000  0.000  0.000  0.000  0.995
    2  0.000  0.000  0.000  0.000  0.000  0.000  0.000  0.000  0.000  0.000
    3  0.000  0.000  0.000  0.000  0.000  0.000  0.000  0.000  0.000  0.000
    4  0.000  0.000  0.000  0.000  0.000  0.000  0.000  0.000  0.000  0.000
tot    0.000  0.000  0.995  0.000  0.000  0.000  0.000  0.000  0.000  0.995
 
band     5 # energy  -39.84470403 # occ.  1.00000000
 
ion      s     py     pz     px    dxy    dyz    dz2    dxz  x2-y2    tot
    1  0.000  0.246  0.000  0.749  0.000  0.000  0.000  0.000  0.000  0.995
    2  0.000  0.000  0.000  0.000  0.000  0.000  0.000  0.000  0.000  0.000
    3  0.000  0.000  0.000  0.000  0.000  0.000  0.000  0.000  0.000  0.000
    4  0.000  0.000  0.000  0.000  0.000  0.000  0.000  0.000  0.000  0.000
tot    0.000  0.246  0.000  0.749  0.000  0.000  0.000  0.000  0.000  0.995
 
band     6 # energy  -39.84388764 # occ.  1.00000000
 
ion      s     py     pz     px    dxy    dyz    dz2    dxz  x2-y2    tot
    1  0.000  0.749  0.000  0.246  0.000  0.000  0.000  0.000  0.000  0.995
    2  0.000  0.000  0.000  0.000  0.000  0.000  0.000  0.000  0.000  0.000
    3  0.000  0.000  0.000  0.000  0.000  0.000  0.000  0.000  0.000  0.000
    4  0.000  0.000  0.000  0.000  0.000  0.000  0.000  0.000  0.000  0.000
tot    0.000  0.749  0.000  0.246  0.000  0.000  0.000  0.000  0.000  0.996
 
band     7 # energy   -4.90440115 # occ.  1.00000000
 
ion      s     py     pz     px    dxy    dyz    dz2    dxz  x2-y2    tot
    1  0.001  0.001  0.002  0.002  0.001  0.000  0.000  0.001  0.000  0.007
    2  0.011  0.001  0.000  0.002  0.001  0.001  0.000  0.003  0.000  0.019
    3  0.316  0.000  0.000  0.000  0.000  0.000  0.000  0.000  0.000  0.317
    4  0.316  0.000  0.000  0.000  0.000  0.000  0.000  0.000  0.000  0.317
tot    0.644  0.001  0.003  0.004  0.002  0.001  0.000  0.004  0.001  0.661
 
band     8 # energy   -4.88787913 # occ.  1.00000000
 
ion      s     py     pz     px    dxy    dyz    dz2    dxz  x2-y2    tot
    1  0.008  0.000  0.000  0.001  0.001  0.001  0.000  0.002  0.000  0.014
    2  0.001  0.001  0.002  0.002  0.001  0.001  0.000  0.002  0.000  0.010
    3  0.318  0.000  0.000  0.000  0.000  0.000  0.000  0.000  0.000  0.319
    4  0.318  0.000  0.000  0.000  0.000  0.000  0.000  0.000  0.000  0.319
tot    0.646  0.001  0.003  0.004  0.002  0.001  0.000  0.004  0.001  0.662
 
band     9 # energy    1.36728561 # occ.  1.00000000
 
ion      s     py     pz     px    dxy    dyz    dz2    dxz  x2-y2    tot
    1  0.005  0.002  0.005  0.005  0.004  0.002  0.000  0.007  0.001  0.031
    2  0.069  0.000  0.000  0.001  0.056  0.001  0.003  0.003  0.019  0.152
    3  0.012  0.022  0.032  0.067  0.000  0.000  0.000  0.000  0.000  0.134
    4  0.012  0.022  0.032  0.067  0.000  0.000  0.000  0.000  0.000  0.134
tot    0.099  0.046  0.069  0.139  0.060  0.003  0.003  0.010  0.020  0.450
 
band    10 # energy    1.47639260 # occ.  1.00000000
 
ion      s     py     pz     px    dxy    dyz    dz2    dxz  x2-y2    tot
    1  0.048  0.000  0.000  0.001  0.008  0.000  0.000  0.000  0.003  0.061
    2  0.011  0.002  0.007  0.005  0.031  0.016  0.000  0.049  0.010  0.132
    3  0.009  0.023  0.033  0.069  0.000  0.000  0.000  0.000  0.000  0.135
    4  0.009  0.023  0.033  0.069  0.000  0.000  0.000  0.000  0.000  0.135
tot    0.077  0.048  0.074  0.144  0.040  0.016  0.001  0.049  0.013  0.462
 
band    11 # energy    2.68536674 # occ.  1.00000000
 
ion      s     py     pz     px    dxy    dyz    dz2    dxz  x2-y2    tot
    1  0.000  0.003  0.000  0.001  0.000  0.000  0.000  0.000  0.001  0.005
    2  0.000  0.000  0.000  0.000  0.024  0.411  0.000  0.137  0.073  0.645
    3  0.000  0.048  0.000  0.016  0.000  0.000  0.000  0.000  0.000  0.065
    4  0.000  0.048  0.000  0.016  0.000  0.000  0.000  0.000  0.000  0.065
tot    0.000  0.099  0.000  0.033  0.025  0.412  0.000  0.137  0.074  0.780
 
band    12 # energy    2.73564410 # occ.  1.00000000
 
ion      s     py     pz     px    dxy    dyz    dz2    dxz  x2-y2    tot
    1  0.000  0.000  0.008  0.001  0.002  0.000  0.000  0.000  0.001  0.013
    2  0.000  0.002  0.000  0.005  0.042  0.021  0.415  0.062  0.014  0.562
    3  0.001  0.004  0.050  0.011  0.001  0.000  0.000  0.000  0.000  0.067
    4  0.001  0.004  0.050  0.011  0.001  0.000  0.000  0.000  0.000  0.067
tot    0.002  0.009  0.110  0.028  0.045  0.021  0.416  0.062  0.015  0.708
 
band    13 # energy    3.29752419 # occ.  1.00000000
 
ion      s     py     pz     px    dxy    dyz    dz2    dxz  x2-y2    tot
    1  0.000  0.001  0.000  0.002  0.002  0.000  0.002  0.000  0.001  0.007
    2  0.003  0.000  0.001  0.000  0.094  0.132  0.123  0.397  0.031  0.784
    3  0.002  0.001  0.016  0.003  0.000  0.000  0.001  0.000  0.000  0.024
    4  0.002  0.001  0.016  0.003  0.000  0.000  0.001  0.000  0.000  0.024
tot    0.007  0.003  0.034  0.008  0.097  0.133  0.127  0.398  0.032  0.839
 
band    14 # energy    3.30591331 # occ.  1.00000000
 
ion      s     py     pz     px    dxy    dyz    dz2    dxz  x2-y2    tot
    1  0.000  0.000  0.000  0.000  0.000  0.007  0.000  0.002  0.001  0.012
    2  0.000  0.003  0.000  0.001  0.166  0.088  0.000  0.029  0.497  0.784
    3  0.000  0.020  0.000  0.007  0.000  0.000  0.000  0.000  0.000  0.027
    4  0.000  0.020  0.000  0.007  0.000  0.000  0.000  0.000  0.000  0.027
tot    0.000  0.044  0.000  0.015  0.166  0.096  0.000  0.032  0.499  0.851
 
band    15 # energy    3.47101000 # occ.  1.00000000
 
ion      s     py     pz     px    dxy    dyz    dz2    dxz  x2-y2    tot
    1  0.006  0.001  0.000  0.003  0.003  0.007  0.015  0.020  0.001  0.056
    2  0.015  0.000  0.013  0.000  0.246  0.000  0.090  0.000  0.082  0.447
    3  0.003  0.011  0.042  0.034  0.001  0.000  0.000  0.000  0.000  0.091
    4  0.003  0.011  0.042  0.034  0.001  0.000  0.000  0.000  0.000  0.091
tot    0.027  0.024  0.097  0.071  0.251  0.007  0.105  0.021  0.084  0.686
 
band    16 # energy    4.05077070 # occ.  1.00000000
 
ion      s     py     pz     px    dxy    dyz    dz2    dxz  x2-y2    tot
    1  0.002  0.001  0.001  0.004  0.012  0.003  0.022  0.010  0.004  0.059
    2  0.000  0.002  0.009  0.007  0.141  0.003  0.185  0.010  0.047  0.405
    3  0.004  0.004  0.087  0.013  0.000  0.000  0.000  0.000  0.000  0.110
    4  0.004  0.004  0.087  0.013  0.000  0.000  0.000  0.000  0.000  0.110
tot    0.011  0.012  0.185  0.037  0.154  0.007  0.208  0.020  0.051  0.685
 
band    17 # energy    4.17793833 # occ.  1.00000000
 
ion      s     py     pz     px    dxy    dyz    dz2    dxz  x2-y2    tot
    1  0.000  0.000  0.000  0.000  0.006  0.088  0.000  0.029  0.018  0.141
    2  0.000  0.017  0.000  0.006  0.029  0.015  0.000  0.005  0.088  0.160
    3  0.000  0.118  0.000  0.039  0.000  0.000  0.000  0.000  0.001  0.159
    4  0.000  0.118  0.000  0.039  0.000  0.000  0.000  0.000  0.001  0.159
tot    0.000  0.254  0.000  0.085  0.036  0.103  0.000  0.034  0.107  0.618
 
band    18 # energy    5.18480930 # occ.  1.00000000
 
ion      s     py     pz     px    dxy    dyz    dz2    dxz  x2-y2    tot
    1  0.020  0.001  0.008  0.002  0.000  0.002  0.013  0.006  0.000  0.052
    2  0.000  0.002  0.001  0.007  0.049  0.052  0.088  0.157  0.016  0.373
    3  0.013  0.008  0.084  0.024  0.000  0.001  0.001  0.002  0.000  0.132
    4  0.013  0.008  0.084  0.024  0.000  0.001  0.001  0.002  0.000  0.132
tot    0.047  0.019  0.178  0.056  0.049  0.055  0.102  0.166  0.016  0.688
 
band    19 # energy    5.47628084 # occ.  1.00000000
 
ion      s     py     pz     px    dxy    dyz    dz2    dxz  x2-y2    tot
    1  0.000  0.019  0.000  0.006  0.009  0.003  0.000  0.001  0.026  0.064
    2  0.000  0.001  0.000  0.000  0.010  0.173  0.000  0.058  0.029  0.271
    3  0.000  0.114  0.000  0.038  0.000  0.002  0.000  0.001  0.000  0.155
    4  0.000  0.114  0.000  0.038  0.000  0.002  0.000  0.001  0.000  0.155
tot    0.000  0.247  0.000  0.082  0.018  0.180  0.000  0.060  0.055  0.644
 
band    20 # energy    6.63578129 # occ.  0.00000152
 
ion      s     py     pz     px    dxy    dyz    dz2    dxz  x2-y2    tot
    1  0.010  0.000  0.000  0.001  0.216  0.043  0.137  0.129  0.072  0.608
    2  0.019  0.000  0.006  0.000  0.005  0.002  0.000  0.005  0.002  0.038
    3  0.006  0.000  0.005  0.000  0.004  0.001  0.002  0.002  0.001  0.022
    4  0.006  0.000  0.005  0.000  0.004  0.001  0.002  0.002  0.001  0.022
tot    0.041  0.000  0.016  0.001  0.230  0.045  0.141  0.136  0.077  0.689
 
band    21 # energy    7.29838968 # occ.  0.00000000
 
ion      s     py     pz     px    dxy    dyz    dz2    dxz  x2-y2    tot
    1  0.000  0.000  0.001  0.000  0.217  0.043  0.249  0.129  0.072  0.711
    2  0.046  0.000  0.001  0.000  0.001  0.000  0.003  0.000  0.000  0.051
    3  0.013  0.001  0.005  0.004  0.000  0.001  0.001  0.004  0.000  0.028
    4  0.013  0.001  0.005  0.004  0.000  0.001  0.001  0.004  0.000  0.028
tot    0.072  0.003  0.012  0.008  0.218  0.045  0.253  0.136  0.073  0.819
 
band    22 # energy    7.46462269 # occ.  0.00000000
 
ion      s     py     pz     px    dxy    dyz    dz2    dxz  x2-y2    tot
    1  0.000  0.002  0.000  0.001  0.201  0.015  0.000  0.005  0.604  0.828
    2  0.000  0.002  0.000  0.001  0.000  0.008  0.000  0.003  0.000  0.013
    3  0.000  0.011  0.000  0.004  0.000  0.001  0.000  0.000  0.001  0.016
    4  0.000  0.011  0.000  0.004  0.000  0.001  0.000  0.000  0.001  0.016
tot    0.000  0.025  0.000  0.008  0.202  0.025  0.000  0.008  0.605  0.874
 
band    23 # energy    7.75943729 # occ.  0.00000000
 
ion      s     py     pz     px    dxy    dyz    dz2    dxz  x2-y2    tot
    1  0.000  0.000  0.000  0.000  0.002  0.537  0.000  0.179  0.005  0.723
    2  0.000  0.017  0.000  0.006  0.001  0.000  0.000  0.000  0.004  0.029
    3  0.000  0.025  0.000  0.008  0.000  0.005  0.000  0.002  0.001  0.040
    4  0.000  0.025  0.000  0.008  0.000  0.005  0.000  0.002  0.001  0.040
tot    0.000  0.067  0.000  0.022  0.004  0.546  0.000  0.182  0.011  0.832
 
band    24 # energy    7.76659523 # occ.  0.00000000
 
ion      s     py     pz     px    dxy    dyz    dz2    dxz  x2-y2    tot
    1  0.004  0.002  0.000  0.005  0.007  0.095  0.361  0.284  0.002  0.760
    2  0.029  0.000  0.000  0.000  0.000  0.000  0.000  0.000  0.000  0.030
    3  0.009  0.002  0.009  0.007  0.000  0.001  0.000  0.002  0.000  0.031
    4  0.009  0.002  0.009  0.007  0.000  0.001  0.000  0.002  0.000  0.031
tot    0.051  0.006  0.019  0.019  0.007  0.096  0.362  0.288  0.002  0.851
 

 k-point    35 :    0.36842105 0.00000000 0.50000000     weight = 0.02500000

band     1 # energy  -44.23205439 # occ.  1.00000000
 
ion      s     py     pz     px    dxy    dyz    dz2    dxz  x2-y2    tot
    1  0.000  0.000  0.000  0.000  0.000  0.000  0.000  0.000  0.000  0.000
    2  0.000  0.246  0.000  0.749  0.000  0.000  0.000  0.000  0.000  0.995
    3  0.000  0.000  0.000  0.000  0.000  0.000  0.000  0.000  0.000  0.000
    4  0.000  0.000  0.000  0.000  0.000  0.000  0.000  0.000  0.000  0.000
tot    0.000  0.246  0.000  0.749  0.000  0.000  0.000  0.000  0.000  0.995
 
band     2 # energy  -44.23146036 # occ.  1.00000000
 
ion      s     py     pz     px    dxy    dyz    dz2    dxz  x2-y2    tot
    1  0.000  0.000  0.000  0.000  0.000  0.000  0.000  0.000  0.000  0.000
    2  0.000  0.749  0.000  0.246  0.000  0.000  0.000  0.000  0.000  0.995
    3  0.000  0.000  0.000  0.000  0.000  0.000  0.000  0.000  0.000  0.000
    4  0.000  0.000  0.000  0.000  0.000  0.000  0.000  0.000  0.000  0.000
tot    0.000  0.749  0.000  0.246  0.000  0.000  0.000  0.000  0.000  0.995
 
band     3 # energy  -44.22817219 # occ.  1.00000000
 
ion      s     py     pz     px    dxy    dyz    dz2    dxz  x2-y2    tot
    1  0.000  0.000  0.000  0.000  0.000  0.000  0.000  0.000  0.000  0.000
    2  0.000  0.000  0.995  0.000  0.000  0.000  0.000  0.000  0.000  0.995
    3  0.000  0.000  0.000  0.000  0.000  0.000  0.000  0.000  0.000  0.000
    4  0.000  0.000  0.000  0.000  0.000  0.000  0.000  0.000  0.000  0.000
tot    0.000  0.000  0.995  0.000  0.000  0.000  0.000  0.000  0.000  0.995
 
band     4 # energy  -39.85042419 # occ.  1.00000000
 
ion      s     py     pz     px    dxy    dyz    dz2    dxz  x2-y2    tot
    1  0.000  0.000  0.995  0.000  0.000  0.000  0.000  0.000  0.000  0.995
    2  0.000  0.000  0.000  0.000  0.000  0.000  0.000  0.000  0.000  0.000
    3  0.000  0.000  0.000  0.000  0.000  0.000  0.000  0.000  0.000  0.000
    4  0.000  0.000  0.000  0.000  0.000  0.000  0.000  0.000  0.000  0.000
tot    0.000  0.000  0.995  0.000  0.000  0.000  0.000  0.000  0.000  0.995
 
band     5 # energy  -39.84479723 # occ.  1.00000000
 
ion      s     py     pz     px    dxy    dyz    dz2    dxz  x2-y2    tot
    1  0.000  0.246  0.000  0.749  0.000  0.000  0.000  0.000  0.000  0.995
    2  0.000  0.000  0.000  0.000  0.000  0.000  0.000  0.000  0.000  0.000
    3  0.000  0.000  0.000  0.000  0.000  0.000  0.000  0.000  0.000  0.000
    4  0.000  0.000  0.000  0.000  0.000  0.000  0.000  0.000  0.000  0.000
tot    0.000  0.246  0.000  0.749  0.000  0.000  0.000  0.000  0.000  0.995
 
band     6 # energy  -39.84390689 # occ.  1.00000000
 
ion      s     py     pz     px    dxy    dyz    dz2    dxz  x2-y2    tot
    1  0.000  0.749  0.000  0.246  0.000  0.000  0.000  0.000  0.000  0.995
    2  0.000  0.000  0.000  0.000  0.000  0.000  0.000  0.000  0.000  0.000
    3  0.000  0.000  0.000  0.000  0.000  0.000  0.000  0.000  0.000  0.000
    4  0.000  0.000  0.000  0.000  0.000  0.000  0.000  0.000  0.000  0.000
tot    0.000  0.749  0.000  0.246  0.000  0.000  0.000  0.000  0.000  0.996
 
band     7 # energy   -4.84690524 # occ.  1.00000000
 
ion      s     py     pz     px    dxy    dyz    dz2    dxz  x2-y2    tot
    1  0.001  0.001  0.001  0.002  0.000  0.000  0.000  0.001  0.000  0.008
    2  0.008  0.000  0.000  0.001  0.002  0.001  0.000  0.004  0.001  0.018
    3  0.320  0.000  0.000  0.000  0.000  0.000  0.000  0.000  0.000  0.321
    4  0.320  0.000  0.000  0.000  0.000  0.000  0.000  0.000  0.000  0.321
tot    0.649  0.001  0.002  0.004  0.002  0.002  0.000  0.005  0.001  0.667
 
band     8 # energy   -4.83008029 # occ.  1.00000000
 
ion      s     py     pz     px    dxy    dyz    dz2    dxz  x2-y2    tot
    1  0.006  0.000  0.000  0.001  0.001  0.001  0.000  0.002  0.000  0.013
    2  0.002  0.001  0.002  0.003  0.001  0.001  0.000  0.002  0.000  0.010
    3  0.322  0.000  0.000  0.000  0.000  0.000  0.000  0.000  0.000  0.322
    4  0.322  0.000  0.000  0.000  0.000  0.000  0.000  0.000  0.000  0.322
tot    0.651  0.002  0.003  0.005  0.002  0.001  0.000  0.004  0.001  0.668
 
band     9 # energy    1.23228932 # occ.  1.00000000
 
ion      s     py     pz     px    dxy    dyz    dz2    dxz  x2-y2    tot
    1  0.002  0.002  0.006  0.005  0.004  0.002  0.000  0.005  0.001  0.026
    2  0.076  0.000  0.000  0.001  0.041  0.002  0.004  0.007  0.014  0.146
    3  0.010  0.023  0.027  0.070  0.000  0.000  0.000  0.000  0.000  0.131
    4  0.010  0.023  0.027  0.070  0.000  0.000  0.000  0.000  0.000  0.131
tot    0.098  0.049  0.061  0.146  0.045  0.004  0.005  0.012  0.015  0.435
 
band    10 # energy    1.38690106 # occ.  1.00000000
 
ion      s     py     pz     px    dxy    dyz    dz2    dxz  x2-y2    tot
    1  0.054  0.000  0.000  0.000  0.007  0.000  0.001  0.001  0.002  0.065
    2  0.005  0.002  0.009  0.007  0.029  0.011  0.000  0.033  0.010  0.105
    3  0.006  0.024  0.031  0.073  0.000  0.000  0.000  0.000  0.000  0.135
    4  0.006  0.024  0.031  0.073  0.000  0.000  0.000  0.000  0.000  0.135
tot    0.072  0.051  0.070  0.153  0.036  0.011  0.001  0.034  0.012  0.440
 
band    11 # energy    2.67118910 # occ.  1.00000000
 
ion      s     py     pz     px    dxy    dyz    dz2    dxz  x2-y2    tot
    1  0.000  0.004  0.000  0.001  0.000  0.000  0.000  0.000  0.000  0.006
    2  0.000  0.000  0.000  0.000  0.020  0.419  0.000  0.140  0.060  0.639
    3  0.000  0.049  0.000  0.016  0.000  0.000  0.000  0.000  0.000  0.066
    4  0.000  0.049  0.000  0.016  0.000  0.000  0.000  0.000  0.000  0.066
tot    0.000  0.101  0.000  0.034  0.020  0.420  0.000  0.140  0.061  0.776
 
band    12 # energy    2.71827886 # occ.  1.00000000
 
ion      s     py     pz     px    dxy    dyz    dz2    dxz  x2-y2    tot
    1  0.000  0.001  0.008  0.002  0.002  0.000  0.001  0.000  0.001  0.013
    2  0.000  0.001  0.001  0.004  0.077  0.025  0.343  0.076  0.026  0.555
    3  0.001  0.004  0.054  0.011  0.001  0.000  0.000  0.000  0.000  0.070
    4  0.001  0.004  0.054  0.011  0.001  0.000  0.000  0.000  0.000  0.070
tot    0.002  0.009  0.115  0.028  0.080  0.025  0.344  0.076  0.027  0.708
 
band    13 # energy    3.27860754 # occ.  1.00000000
 
ion      s     py     pz     px    dxy    dyz    dz2    dxz  x2-y2    tot
    1  0.000  0.001  0.001  0.003  0.000  0.000  0.003  0.000  0.000  0.008
    2  0.001  0.000  0.002  0.000  0.046  0.129  0.192  0.386  0.015  0.771
    3  0.002  0.001  0.018  0.004  0.000  0.000  0.001  0.000  0.000  0.027
    4  0.002  0.001  0.018  0.004  0.000  0.000  0.001  0.000  0.000  0.027
tot    0.005  0.004  0.038  0.012  0.047  0.129  0.196  0.387  0.016  0.833
 
band    14 # energy    3.33862143 # occ.  1.00000000
 
ion      s     py     pz     px    dxy    dyz    dz2    dxz  x2-y2    tot
    1  0.000  0.000  0.000  0.000  0.000  0.007  0.000  0.002  0.001  0.011
    2  0.000  0.003  0.000  0.001  0.173  0.073  0.000  0.024  0.519  0.793
    3  0.000  0.019  0.000  0.006  0.000  0.000  0.000  0.000  0.000  0.026
    4  0.000  0.019  0.000  0.006  0.000  0.000  0.000  0.000  0.000  0.026
tot    0.000  0.042  0.000  0.014  0.173  0.081  0.000  0.027  0.520  0.857
 
band    15 # energy    3.44150543 # occ.  1.00000000
 
ion      s     py     pz     px    dxy    dyz    dz2    dxz  x2-y2    tot
    1  0.006  0.000  0.000  0.001  0.005  0.006  0.010  0.019  0.002  0.050
    2  0.018  0.000  0.009  0.001  0.285  0.005  0.105  0.015  0.095  0.533
    3  0.002  0.008  0.039  0.023  0.001  0.000  0.000  0.000  0.000  0.074
    4  0.002  0.008  0.039  0.023  0.001  0.000  0.000  0.000  0.000  0.074
tot    0.028  0.016  0.088  0.048  0.293  0.011  0.115  0.034  0.098  0.730
 
band    16 # energy    4.01885109 # occ.  1.00000000
 
ion      s     py     pz     px    dxy    dyz    dz2    dxz  x2-y2    tot
    1  0.000  0.001  0.001  0.003  0.015  0.005  0.021  0.015  0.005  0.067
    2  0.000  0.003  0.010  0.008  0.122  0.001  0.189  0.002  0.041  0.375
    3  0.003  0.005  0.092  0.015  0.001  0.000  0.000  0.000  0.000  0.115
    4  0.003  0.005  0.092  0.015  0.001  0.000  0.000  0.000  0.000  0.115
tot    0.006  0.014  0.195  0.041  0.138  0.006  0.210  0.017  0.046  0.673
 
band    17 # energy    4.11103174 # occ.  1.00000000
 
ion      s     py     pz     px    dxy    dyz    dz2    dxz  x2-y2    tot
    1  0.000  0.000  0.000  0.000  0.005  0.087  0.000  0.029  0.014  0.135
    2  0.000  0.018  0.000  0.006  0.029  0.012  0.000  0.004  0.086  0.155
    3  0.000  0.119  0.000  0.040  0.000  0.000  0.000  0.000  0.001  0.160
    4  0.000  0.119  0.000  0.040  0.000  0.000  0.000  0.000  0.001  0.160
tot    0.000  0.257  0.000  0.086  0.034  0.099  0.000  0.033  0.102  0.610
 
band    18 # energy    5.28401505 # occ.  1.00000000
 
ion      s     py     pz     px    dxy    dyz    dz2    dxz  x2-y2    tot
    1  0.017  0.001  0.007  0.003  0.000  0.002  0.016  0.006  0.000  0.053
    2  0.001  0.002  0.002  0.005  0.062  0.053  0.068  0.158  0.021  0.372
    3  0.015  0.006  0.089  0.019  0.000  0.000  0.001  0.001  0.000  0.133
    4  0.015  0.006  0.089  0.019  0.000  0.000  0.001  0.001  0.000  0.133
tot    0.049  0.016  0.188  0.047  0.062  0.056  0.086  0.167  0.021  0.691
 
band    19 # energy    5.46098840 # occ.  1.00000000
 
ion      s     py     pz     px    dxy    dyz    dz2    dxz  x2-y2    tot
    1  0.000  0.020  0.000  0.007  0.006  0.002  0.000  0.001  0.019  0.055
    2  0.000  0.001  0.000  0.000  0.008  0.184  0.000  0.061  0.025  0.279
    3  0.000  0.114  0.000  0.038  0.000  0.002  0.000  0.001  0.000  0.155
    4  0.000  0.114  0.000  0.038  0.000  0.002  0.000  0.001  0.000  0.155
tot    0.000  0.248  0.000  0.083  0.015  0.191  0.000  0.064  0.044  0.644
 
band    20 # energy    6.61637737 # occ.  0.00001896
 
ion      s     py     pz     px    dxy    dyz    dz2    dxz  x2-y2    tot
    1  0.008  0.000  0.000  0.001  0.192  0.048  0.151  0.145  0.064  0.610
    2  0.016  0.000  0.006  0.000  0.006  0.001  0.000  0.004  0.002  0.035
    3  0.005  0.000  0.006  0.000  0.004  0.000  0.003  0.001  0.001  0.021
    4  0.005  0.000  0.006  0.000  0.004  0.000  0.003  0.001  0.001  0.021
tot    0.034  0.001  0.019  0.002  0.206  0.051  0.157  0.152  0.069  0.688
 
band    21 # energy    7.34198918 # occ.  0.00000000
 
ion      s     py     pz     px    dxy    dyz    dz2    dxz  x2-y2    tot
    1  0.001  0.000  0.002  0.000  0.237  0.025  0.291  0.076  0.079  0.713
    2  0.042  0.000  0.001  0.000  0.001  0.000  0.003  0.000  0.000  0.049
    3  0.010  0.002  0.006  0.005  0.000  0.001  0.000  0.003  0.000  0.028
    4  0.010  0.002  0.006  0.005  0.000  0.001  0.000  0.003  0.000  0.028
tot    0.064  0.003  0.014  0.010  0.239  0.028  0.296  0.084  0.080  0.817
 
band    22 # energy    7.44596315 # occ.  0.00000000
 
ion      s     py     pz     px    dxy    dyz    dz2    dxz  x2-y2    tot
    1  0.000  0.002  0.000  0.001  0.207  0.004  0.000  0.001  0.622  0.837
    2  0.000  0.002  0.000  0.001  0.000  0.006  0.000  0.002  0.000  0.011
    3  0.000  0.008  0.000  0.003  0.000  0.001  0.000  0.000  0.001  0.013
    4  0.000  0.008  0.000  0.003  0.000  0.001  0.000  0.000  0.001  0.013
tot    0.000  0.020  0.000  0.007  0.208  0.013  0.000  0.004  0.623  0.875
 
band    23 # energy    7.75298913 # occ.  0.00000000
 
ion      s     py     pz     px    dxy    dyz    dz2    dxz  x2-y2    tot
    1  0.000  0.000  0.000  0.000  0.000  0.549  0.000  0.183  0.000  0.732
    2  0.000  0.017  0.000  0.006  0.001  0.000  0.000  0.000  0.003  0.027
    3  0.000  0.023  0.000  0.008  0.000  0.005  0.000  0.002  0.001  0.037
    4  0.000  0.023  0.000  0.008  0.000  0.005  0.000  0.002  0.001  0.037
tot    0.000  0.063  0.000  0.021  0.001  0.558  0.000  0.186  0.004  0.834
 
band    24 # energy    7.77992277 # occ.  0.00000000
 
ion      s     py     pz     px    dxy    dyz    dz2    dxz  x2-y2    tot
    1  0.008  0.002  0.001  0.006  0.002  0.099  0.298  0.296  0.001  0.712
    2  0.043  0.000  0.000  0.000  0.001  0.000  0.001  0.000  0.000  0.045
    3  0.013  0.002  0.007  0.006  0.001  0.001  0.000  0.003  0.000  0.033
    4  0.013  0.002  0.007  0.006  0.001  0.001  0.000  0.003  0.000  0.033
tot    0.077  0.006  0.014  0.019  0.004  0.101  0.298  0.302  0.001  0.822
 

 k-point    36 :    0.39473684 0.00000000 0.50000000     weight = 0.02500000

band     1 # energy  -44.23210833 # occ.  1.00000000
 
ion      s     py     pz     px    dxy    dyz    dz2    dxz  x2-y2    tot
    1  0.000  0.000  0.000  0.000  0.000  0.000  0.000  0.000  0.000  0.000
    2  0.000  0.246  0.000  0.749  0.000  0.000  0.000  0.000  0.000  0.995
    3  0.000  0.000  0.000  0.000  0.000  0.000  0.000  0.000  0.000  0.000
    4  0.000  0.000  0.000  0.000  0.000  0.000  0.000  0.000  0.000  0.000
tot    0.000  0.246  0.000  0.749  0.000  0.000  0.000  0.000  0.000  0.995
 
band     2 # energy  -44.23147357 # occ.  1.00000000
 
ion      s     py     pz     px    dxy    dyz    dz2    dxz  x2-y2    tot
    1  0.000  0.000  0.000  0.000  0.000  0.000  0.000  0.000  0.000  0.000
    2  0.000  0.749  0.000  0.246  0.000  0.000  0.000  0.000  0.000  0.995
    3  0.000  0.000  0.000  0.000  0.000  0.000  0.000  0.000  0.000  0.000
    4  0.000  0.000  0.000  0.000  0.000  0.000  0.000  0.000  0.000  0.000
tot    0.000  0.749  0.000  0.246  0.000  0.000  0.000  0.000  0.000  0.995
 
band     3 # energy  -44.22816297 # occ.  1.00000000
 
ion      s     py     pz     px    dxy    dyz    dz2    dxz  x2-y2    tot
    1  0.000  0.000  0.000  0.000  0.000  0.000  0.000  0.000  0.000  0.000
    2  0.000  0.000  0.995  0.000  0.000  0.000  0.000  0.000  0.000  0.995
    3  0.000  0.000  0.000  0.000  0.000  0.000  0.000  0.000  0.000  0.000
    4  0.000  0.000  0.000  0.000  0.000  0.000  0.000  0.000  0.000  0.000
tot    0.000  0.000  0.995  0.000  0.000  0.000  0.000  0.000  0.000  0.995
 
band     4 # energy  -39.85040967 # occ.  1.00000000
 
ion      s     py     pz     px    dxy    dyz    dz2    dxz  x2-y2    tot
    1  0.000  0.000  0.995  0.000  0.000  0.000  0.000  0.000  0.000  0.995
    2  0.000  0.000  0.000  0.000  0.000  0.000  0.000  0.000  0.000  0.000
    3  0.000  0.000  0.000  0.000  0.000  0.000  0.000  0.000  0.000  0.000
    4  0.000  0.000  0.000  0.000  0.000  0.000  0.000  0.000  0.000  0.000
tot    0.000  0.000  0.995  0.000  0.000  0.000  0.000  0.000  0.000  0.995
 
band     5 # energy  -39.84487760 # occ.  1.00000000
 
ion      s     py     pz     px    dxy    dyz    dz2    dxz  x2-y2    tot
    1  0.000  0.246  0.000  0.749  0.000  0.000  0.000  0.000  0.000  0.995
    2  0.000  0.000  0.000  0.000  0.000  0.000  0.000  0.000  0.000  0.000
    3  0.000  0.000  0.000  0.000  0.000  0.000  0.000  0.000  0.000  0.000
    4  0.000  0.000  0.000  0.000  0.000  0.000  0.000  0.000  0.000  0.000
tot    0.000  0.246  0.000  0.749  0.000  0.000  0.000  0.000  0.000  0.995
 
band     6 # energy  -39.84392642 # occ.  1.00000000
 
ion      s     py     pz     px    dxy    dyz    dz2    dxz  x2-y2    tot
    1  0.000  0.749  0.000  0.246  0.000  0.000  0.000  0.000  0.000  0.995
    2  0.000  0.000  0.000  0.000  0.000  0.000  0.000  0.000  0.000  0.000
    3  0.000  0.000  0.000  0.000  0.000  0.000  0.000  0.000  0.000  0.000
    4  0.000  0.000  0.000  0.000  0.000  0.000  0.000  0.000  0.000  0.000
tot    0.000  0.749  0.000  0.246  0.000  0.000  0.000  0.000  0.000  0.996
 
band     7 # energy   -4.79665286 # occ.  1.00000000
 
ion      s     py     pz     px    dxy    dyz    dz2    dxz  x2-y2    tot
    1  0.001  0.001  0.001  0.003  0.000  0.000  0.000  0.001  0.000  0.007
    2  0.006  0.000  0.000  0.001  0.003  0.002  0.000  0.005  0.001  0.018
    3  0.323  0.000  0.000  0.000  0.000  0.000  0.000  0.000  0.000  0.324
    4  0.323  0.000  0.000  0.000  0.000  0.000  0.000  0.000  0.000  0.324
tot    0.654  0.001  0.002  0.004  0.003  0.002  0.000  0.006  0.001  0.673
 
band     8 # energy   -4.77819238 # occ.  1.00000000
 
ion      s     py     pz     px    dxy    dyz    dz2    dxz  x2-y2    tot
    1  0.005  0.000  0.000  0.001  0.002  0.001  0.000  0.003  0.001  0.012
    2  0.002  0.001  0.001  0.004  0.000  0.000  0.000  0.001  0.000  0.010
    3  0.325  0.000  0.000  0.000  0.000  0.000  0.000  0.000  0.000  0.325
    4  0.325  0.000  0.000  0.000  0.000  0.000  0.000  0.000  0.000  0.325
tot    0.656  0.002  0.002  0.005  0.002  0.001  0.000  0.004  0.001  0.673
 
band     9 # energy    1.11273964 # occ.  1.00000000
 
ion      s     py     pz     px    dxy    dyz    dz2    dxz  x2-y2    tot
    1  0.001  0.002  0.007  0.006  0.003  0.001  0.000  0.003  0.001  0.023
    2  0.080  0.000  0.000  0.000  0.034  0.003  0.006  0.009  0.011  0.144
    3  0.007  0.024  0.024  0.072  0.000  0.000  0.000  0.000  0.000  0.128
    4  0.007  0.024  0.024  0.072  0.000  0.000  0.000  0.000  0.000  0.128
tot    0.094  0.050  0.056  0.151  0.037  0.004  0.006  0.013  0.012  0.423
 
band    10 # energy    1.30867817 # occ.  1.00000000
 
ion      s     py     pz     px    dxy    dyz    dz2    dxz  x2-y2    tot
    1  0.058  0.000  0.000  0.000  0.006  0.000  0.001  0.001  0.002  0.069
    2  0.002  0.003  0.010  0.008  0.020  0.007  0.000  0.021  0.007  0.079
    3  0.004  0.026  0.028  0.077  0.000  0.000  0.000  0.000  0.000  0.135
    4  0.004  0.026  0.028  0.077  0.000  0.000  0.000  0.000  0.000  0.135
tot    0.069  0.054  0.067  0.162  0.027  0.007  0.001  0.022  0.009  0.419
 
band    11 # energy    2.65808426 # occ.  1.00000000
 
ion      s     py     pz     px    dxy    dyz    dz2    dxz  x2-y2    tot
    1  0.000  0.004  0.000  0.001  0.000  0.000  0.000  0.000  0.000  0.006
    2  0.000  0.000  0.000  0.000  0.017  0.425  0.000  0.142  0.050  0.633
    3  0.000  0.049  0.000  0.016  0.000  0.000  0.000  0.000  0.000  0.067
    4  0.000  0.049  0.000  0.016  0.000  0.000  0.000  0.000  0.000  0.067
tot    0.000  0.103  0.000  0.034  0.017  0.425  0.000  0.142  0.051  0.772
 
band    12 # energy    2.68924346 # occ.  1.00000000
 
ion      s     py     pz     px    dxy    dyz    dz2    dxz  x2-y2    tot
    1  0.000  0.001  0.007  0.003  0.001  0.000  0.001  0.000  0.000  0.013
    2  0.001  0.001  0.001  0.003  0.115  0.031  0.273  0.092  0.038  0.554
    3  0.001  0.003  0.056  0.010  0.001  0.000  0.000  0.000  0.000  0.072
    4  0.001  0.003  0.056  0.010  0.001  0.000  0.000  0.000  0.000  0.072
tot    0.003  0.009  0.119  0.027  0.117  0.031  0.274  0.092  0.039  0.711
 
band    13 # energy    3.26162884 # occ.  1.00000000
 
ion      s     py     pz     px    dxy    dyz    dz2    dxz  x2-y2    tot
    1  0.000  0.001  0.001  0.002  0.000  0.000  0.002  0.001  0.000  0.007
    2  0.000  0.000  0.002  0.000  0.031  0.122  0.253  0.365  0.010  0.784
    3  0.002  0.001  0.016  0.004  0.000  0.000  0.001  0.000  0.000  0.024
    4  0.002  0.001  0.016  0.004  0.000  0.000  0.001  0.000  0.000  0.024
tot    0.004  0.003  0.035  0.010  0.032  0.122  0.257  0.366  0.011  0.840
 
band    14 # energy    3.37435817 # occ.  1.00000000
 
ion      s     py     pz     px    dxy    dyz    dz2    dxz  x2-y2    tot
    1  0.000  0.000  0.000  0.000  0.000  0.007  0.000  0.002  0.001  0.011
    2  0.000  0.003  0.000  0.001  0.181  0.063  0.000  0.021  0.542  0.810
    3  0.000  0.017  0.000  0.006  0.000  0.000  0.000  0.000  0.000  0.023
    4  0.000  0.017  0.000  0.006  0.000  0.000  0.000  0.000  0.000  0.023
tot    0.000  0.037  0.000  0.012  0.181  0.071  0.000  0.024  0.543  0.867
 
band    15 # energy    3.45102809 # occ.  1.00000000
 
ion      s     py     pz     px    dxy    dyz    dz2    dxz  x2-y2    tot
    1  0.005  0.000  0.000  0.000  0.007  0.006  0.007  0.018  0.002  0.046
    2  0.018  0.000  0.007  0.001  0.283  0.011  0.131  0.033  0.094  0.579
    3  0.002  0.006  0.039  0.017  0.001  0.000  0.000  0.000  0.000  0.065
    4  0.002  0.006  0.039  0.017  0.001  0.000  0.000  0.000  0.000  0.065
tot    0.026  0.012  0.086  0.035  0.292  0.017  0.138  0.052  0.097  0.754
 
band    16 # energy    3.96986763 # occ.  1.00000000
 
ion      s     py     pz     px    dxy    dyz    dz2    dxz  x2-y2    tot
    1  0.000  0.001  0.001  0.002  0.019  0.007  0.019  0.020  0.006  0.076
    2  0.001  0.003  0.010  0.009  0.107  0.000  0.185  0.000  0.036  0.349
    3  0.002  0.005  0.096  0.015  0.001  0.000  0.000  0.000  0.000  0.119
    4  0.002  0.005  0.096  0.015  0.001  0.000  0.000  0.000  0.000  0.119
tot    0.004  0.014  0.202  0.042  0.127  0.007  0.204  0.020  0.042  0.663
 
band    17 # energy    4.04567581 # occ.  1.00000000
 
ion      s     py     pz     px    dxy    dyz    dz2    dxz  x2-y2    tot
    1  0.000  0.000  0.000  0.000  0.004  0.086  0.000  0.029  0.012  0.131
    2  0.000  0.019  0.000  0.006  0.026  0.009  0.000  0.003  0.078  0.141
    3  0.000  0.121  0.000  0.040  0.000  0.000  0.000  0.000  0.000  0.162
    4  0.000  0.121  0.000  0.040  0.000  0.000  0.000  0.000  0.000  0.162
tot    0.000  0.262  0.000  0.087  0.030  0.095  0.000  0.032  0.091  0.597
 
band    18 # energy    5.39096372 # occ.  1.00000000
 
ion      s     py     pz     px    dxy    dyz    dz2    dxz  x2-y2    tot
    1  0.014  0.002  0.007  0.005  0.000  0.002  0.017  0.005  0.000  0.051
    2  0.003  0.001  0.002  0.004  0.074  0.052  0.055  0.157  0.025  0.372
    3  0.016  0.005  0.095  0.016  0.000  0.000  0.001  0.001  0.000  0.136
    4  0.016  0.005  0.095  0.016  0.000  0.000  0.001  0.001  0.000  0.136
tot    0.048  0.014  0.199  0.042  0.074  0.055  0.072  0.165  0.025  0.694
 
band    19 # energy    5.45130196 # occ.  1.00000000
 
ion      s     py     pz     px    dxy    dyz    dz2    dxz  x2-y2    tot
    1  0.000  0.021  0.000  0.007  0.004  0.001  0.000  0.000  0.013  0.047
    2  0.000  0.000  0.000  0.000  0.007  0.194  0.000  0.065  0.021  0.287
    3  0.000  0.114  0.000  0.038  0.000  0.002  0.000  0.001  0.000  0.155
    4  0.000  0.114  0.000  0.038  0.000  0.002  0.000  0.001  0.000  0.155
tot    0.000  0.250  0.000  0.083  0.011  0.199  0.000  0.066  0.034  0.645
 
band    20 # energy    6.59787934 # occ.  0.00016119
 
ion      s     py     pz     px    dxy    dyz    dz2    dxz  x2-y2    tot
    1  0.005  0.000  0.000  0.001  0.169  0.053  0.170  0.160  0.056  0.616
    2  0.011  0.000  0.007  0.000  0.005  0.001  0.000  0.004  0.002  0.032
    3  0.004  0.000  0.007  0.000  0.004  0.000  0.003  0.001  0.001  0.021
    4  0.004  0.000  0.007  0.000  0.004  0.000  0.003  0.001  0.001  0.021
tot    0.025  0.001  0.020  0.002  0.182  0.056  0.176  0.167  0.061  0.689
 
band    21 # energy    7.38542405 # occ.  0.00000000
 
ion      s     py     pz     px    dxy    dyz    dz2    dxz  x2-y2    tot
    1  0.004  0.000  0.002  0.000  0.257  0.010  0.345  0.030  0.086  0.733
    2  0.034  0.000  0.001  0.000  0.001  0.000  0.003  0.001  0.000  0.041
    3  0.007  0.002  0.006  0.005  0.000  0.001  0.000  0.003  0.000  0.025
    4  0.007  0.002  0.006  0.005  0.000  0.001  0.000  0.003  0.000  0.025
tot    0.052  0.003  0.016  0.010  0.258  0.012  0.349  0.037  0.086  0.824
 
band    22 # energy    7.42745804 # occ.  0.00000000
 
ion      s     py     pz     px    dxy    dyz    dz2    dxz  x2-y2    tot
    1  0.000  0.001  0.000  0.000  0.211  0.000  0.000  0.000  0.633  0.845
    2  0.000  0.003  0.000  0.001  0.000  0.004  0.000  0.001  0.000  0.009
    3  0.000  0.006  0.000  0.002  0.000  0.001  0.000  0.000  0.001  0.010
    4  0.000  0.006  0.000  0.002  0.000  0.001  0.000  0.000  0.001  0.010
tot    0.000  0.015  0.000  0.005  0.211  0.007  0.000  0.002  0.634  0.876
 
band    23 # energy    7.74930287 # occ.  0.00000000
 
ion      s     py     pz     px    dxy    dyz    dz2    dxz  x2-y2    tot
    1  0.000  0.000  0.000  0.000  0.000  0.554  0.000  0.185  0.001  0.740
    2  0.000  0.017  0.000  0.006  0.001  0.000  0.000  0.000  0.002  0.026
    3  0.000  0.021  0.000  0.007  0.000  0.005  0.000  0.002  0.000  0.035
    4  0.000  0.021  0.000  0.007  0.000  0.005  0.000  0.002  0.000  0.035
tot    0.000  0.060  0.000  0.020  0.001  0.563  0.000  0.188  0.004  0.836
 
band    24 # energy    7.79618830 # occ.  0.00000000
 
ion      s     py     pz     px    dxy    dyz    dz2    dxz  x2-y2    tot
    1  0.012  0.002  0.001  0.007  0.000  0.098  0.217  0.295  0.000  0.632
    2  0.063  0.000  0.000  0.001  0.001  0.000  0.001  0.000  0.000  0.066
    3  0.017  0.002  0.004  0.007  0.001  0.001  0.000  0.004  0.000  0.038
    4  0.017  0.002  0.004  0.007  0.001  0.001  0.000  0.004  0.000  0.038
tot    0.110  0.007  0.010  0.021  0.003  0.101  0.218  0.304  0.001  0.775
 

 k-point    37 :    0.42105263 0.00000000 0.50000000     weight = 0.02500000

band     1 # energy  -44.23215758 # occ.  1.00000000
 
ion      s     py     pz     px    dxy    dyz    dz2    dxz  x2-y2    tot
    1  0.000  0.000  0.000  0.000  0.000  0.000  0.000  0.000  0.000  0.000
    2  0.000  0.247  0.000  0.749  0.000  0.000  0.000  0.000  0.000  0.995
    3  0.000  0.000  0.000  0.000  0.000  0.000  0.000  0.000  0.000  0.000
    4  0.000  0.000  0.000  0.000  0.000  0.000  0.000  0.000  0.000  0.000
tot    0.000  0.247  0.000  0.749  0.000  0.000  0.000  0.000  0.000  0.995
 
band     2 # energy  -44.23148654 # occ.  1.00000000
 
ion      s     py     pz     px    dxy    dyz    dz2    dxz  x2-y2    tot
    1  0.000  0.000  0.000  0.000  0.000  0.000  0.000  0.000  0.000  0.000
    2  0.000  0.749  0.000  0.247  0.000  0.000  0.000  0.000  0.000  0.995
    3  0.000  0.000  0.000  0.000  0.000  0.000  0.000  0.000  0.000  0.000
    4  0.000  0.000  0.000  0.000  0.000  0.000  0.000  0.000  0.000  0.000
tot    0.000  0.749  0.000  0.247  0.000  0.000  0.000  0.000  0.000  0.995
 
band     3 # energy  -44.22816804 # occ.  1.00000000
 
ion      s     py     pz     px    dxy    dyz    dz2    dxz  x2-y2    tot
    1  0.000  0.000  0.000  0.000  0.000  0.000  0.000  0.000  0.000  0.000
    2  0.000  0.000  0.995  0.000  0.000  0.000  0.000  0.000  0.000  0.995
    3  0.000  0.000  0.000  0.000  0.000  0.000  0.000  0.000  0.000  0.000
    4  0.000  0.000  0.000  0.000  0.000  0.000  0.000  0.000  0.000  0.000
tot    0.000  0.000  0.995  0.000  0.000  0.000  0.000  0.000  0.000  0.995
 
band     4 # energy  -39.85041341 # occ.  1.00000000
 
ion      s     py     pz     px    dxy    dyz    dz2    dxz  x2-y2    tot
    1  0.000  0.000  0.995  0.000  0.000  0.000  0.000  0.000  0.000  0.995
    2  0.000  0.000  0.000  0.000  0.000  0.000  0.000  0.000  0.000  0.000
    3  0.000  0.000  0.000  0.000  0.000  0.000  0.000  0.000  0.000  0.000
    4  0.000  0.000  0.000  0.000  0.000  0.000  0.000  0.000  0.000  0.000
tot    0.000  0.000  0.995  0.000  0.000  0.000  0.000  0.000  0.000  0.995
 
band     5 # energy  -39.84495019 # occ.  1.00000000
 
ion      s     py     pz     px    dxy    dyz    dz2    dxz  x2-y2    tot
    1  0.000  0.247  0.000  0.749  0.000  0.000  0.000  0.000  0.000  0.995
    2  0.000  0.000  0.000  0.000  0.000  0.000  0.000  0.000  0.000  0.000
    3  0.000  0.000  0.000  0.000  0.000  0.000  0.000  0.000  0.000  0.000
    4  0.000  0.000  0.000  0.000  0.000  0.000  0.000  0.000  0.000  0.000
tot    0.000  0.247  0.000  0.749  0.000  0.000  0.000  0.000  0.000  0.995
 
band     6 # energy  -39.84394529 # occ.  1.00000000
 
ion      s     py     pz     px    dxy    dyz    dz2    dxz  x2-y2    tot
    1  0.000  0.749  0.000  0.247  0.000  0.000  0.000  0.000  0.000  0.995
    2  0.000  0.000  0.000  0.000  0.000  0.000  0.000  0.000  0.000  0.000
    3  0.000  0.000  0.000  0.000  0.000  0.000  0.000  0.000  0.000  0.000
    4  0.000  0.000  0.000  0.000  0.000  0.000  0.000  0.000  0.000  0.000
tot    0.000  0.749  0.000  0.247  0.000  0.000  0.000  0.000  0.000  0.996
 
band     7 # energy   -4.75538442 # occ.  1.00000000
 
ion      s     py     pz     px    dxy    dyz    dz2    dxz  x2-y2    tot
    1  0.001  0.001  0.001  0.004  0.000  0.000  0.000  0.000  0.000  0.007
    2  0.005  0.000  0.000  0.000  0.003  0.002  0.000  0.006  0.001  0.018
    3  0.326  0.000  0.000  0.000  0.000  0.000  0.000  0.000  0.000  0.326
    4  0.326  0.000  0.000  0.000  0.000  0.000  0.000  0.000  0.000  0.326
tot    0.657  0.001  0.001  0.004  0.003  0.002  0.000  0.007  0.001  0.678
 
band     8 # energy   -4.73469502 # occ.  1.00000000
 
ion      s     py     pz     px    dxy    dyz    dz2    dxz  x2-y2    tot
    1  0.004  0.000  0.000  0.000  0.002  0.001  0.000  0.004  0.001  0.012
    2  0.001  0.001  0.001  0.004  0.000  0.000  0.000  0.000  0.000  0.009
    3  0.328  0.000  0.000  0.000  0.000  0.000  0.000  0.000  0.000  0.328
    4  0.328  0.000  0.000  0.000  0.000  0.000  0.000  0.000  0.000  0.328
tot    0.661  0.002  0.002  0.005  0.002  0.001  0.000  0.004  0.001  0.677
 
band     9 # energy    1.01451223 # occ.  1.00000000
 
ion      s     py     pz     px    dxy    dyz    dz2    dxz  x2-y2    tot
    1  0.000  0.002  0.008  0.006  0.002  0.001  0.000  0.002  0.001  0.021
    2  0.082  0.000  0.000  0.000  0.030  0.003  0.007  0.010  0.010  0.143
    3  0.004  0.025  0.022  0.074  0.000  0.000  0.000  0.000  0.000  0.125
    4  0.004  0.025  0.022  0.074  0.000  0.000  0.000  0.000  0.000  0.125
tot    0.091  0.051  0.052  0.154  0.032  0.004  0.007  0.013  0.011  0.414
 
band    10 # energy    1.24358817 # occ.  1.00000000
 
ion      s     py     pz     px    dxy    dyz    dz2    dxz  x2-y2    tot
    1  0.061  0.000  0.000  0.000  0.006  0.000  0.001  0.001  0.002  0.072
    2  0.001  0.003  0.012  0.009  0.012  0.004  0.000  0.012  0.004  0.057
    3  0.003  0.027  0.026  0.080  0.000  0.000  0.000  0.000  0.000  0.136
    4  0.003  0.027  0.026  0.080  0.000  0.000  0.000  0.000  0.000  0.136
tot    0.067  0.056  0.064  0.169  0.018  0.004  0.001  0.013  0.006  0.400
 
band    11 # energy    2.64696203 # occ.  1.00000000
 
ion      s     py     pz     px    dxy    dyz    dz2    dxz  x2-y2    tot
    1  0.000  0.004  0.000  0.001  0.000  0.000  0.000  0.000  0.000  0.006
    2  0.000  0.000  0.000  0.000  0.014  0.428  0.000  0.143  0.043  0.629
    3  0.000  0.050  0.000  0.017  0.000  0.000  0.000  0.000  0.000  0.068
    4  0.000  0.050  0.000  0.017  0.000  0.000  0.000  0.000  0.000  0.068
tot    0.000  0.104  0.000  0.035  0.015  0.428  0.000  0.143  0.044  0.769
 
band    12 # energy    2.65640859 # occ.  1.00000000
 
ion      s     py     pz     px    dxy    dyz    dz2    dxz  x2-y2    tot
    1  0.000  0.001  0.006  0.003  0.001  0.000  0.001  0.000  0.000  0.012
    2  0.002  0.001  0.001  0.002  0.146  0.035  0.219  0.106  0.049  0.560
    3  0.001  0.003  0.058  0.010  0.001  0.000  0.000  0.000  0.000  0.072
    4  0.001  0.003  0.058  0.010  0.001  0.000  0.000  0.000  0.000  0.072
tot    0.003  0.008  0.122  0.024  0.148  0.035  0.220  0.106  0.049  0.716
 
band    13 # energy    3.25189393 # occ.  1.00000000
 
ion      s     py     pz     px    dxy    dyz    dz2    dxz  x2-y2    tot
    1  0.000  0.001  0.001  0.002  0.000  0.000  0.001  0.001  0.000  0.006
    2  0.000  0.000  0.001  0.000  0.034  0.119  0.287  0.356  0.011  0.807
    3  0.001  0.001  0.014  0.002  0.000  0.000  0.001  0.000  0.000  0.019
    4  0.001  0.001  0.014  0.002  0.000  0.000  0.001  0.000  0.000  0.019
tot    0.003  0.002  0.029  0.006  0.034  0.119  0.289  0.357  0.011  0.852
 
band    14 # energy    3.41066651 # occ.  1.00000000
 
ion      s     py     pz     px    dxy    dyz    dz2    dxz  x2-y2    tot
    1  0.000  0.000  0.000  0.000  0.000  0.006  0.000  0.002  0.001  0.009
    2  0.000  0.002  0.000  0.001  0.190  0.057  0.000  0.019  0.569  0.837
    3  0.000  0.013  0.000  0.004  0.000  0.000  0.000  0.000  0.000  0.018
    4  0.000  0.013  0.000  0.004  0.000  0.000  0.000  0.000  0.000  0.018
tot    0.000  0.029  0.000  0.010  0.190  0.063  0.000  0.021  0.569  0.882
 
band    15 # energy    3.48425682 # occ.  1.00000000
 
ion      s     py     pz     px    dxy    dyz    dz2    dxz  x2-y2    tot
    1  0.004  0.000  0.000  0.000  0.008  0.005  0.006  0.016  0.003  0.042
    2  0.017  0.001  0.006  0.002  0.269  0.013  0.175  0.039  0.090  0.610
    3  0.002  0.004  0.039  0.013  0.001  0.000  0.000  0.000  0.000  0.059
    4  0.002  0.004  0.039  0.013  0.001  0.000  0.000  0.000  0.000  0.059
tot    0.023  0.009  0.084  0.028  0.279  0.018  0.181  0.055  0.093  0.771
 
band    16 # energy    3.90973043 # occ.  1.00000000
 
ion      s     py     pz     px    dxy    dyz    dz2    dxz  x2-y2    tot
    1  0.001  0.001  0.001  0.002  0.023  0.008  0.017  0.025  0.008  0.085
    2  0.001  0.003  0.010  0.010  0.093  0.000  0.169  0.001  0.031  0.318
    3  0.001  0.005  0.100  0.016  0.001  0.000  0.000  0.000  0.000  0.123
    4  0.001  0.005  0.100  0.016  0.001  0.000  0.000  0.000  0.000  0.123
tot    0.004  0.014  0.212  0.042  0.117  0.009  0.187  0.026  0.039  0.649
 
band    17 # energy    3.98534492 # occ.  1.00000000
 
ion      s     py     pz     px    dxy    dyz    dz2    dxz  x2-y2    tot
    1  0.000  0.000  0.000  0.000  0.004  0.086  0.000  0.029  0.011  0.130
    2  0.000  0.020  0.000  0.007  0.021  0.006  0.000  0.002  0.062  0.117
    3  0.000  0.125  0.000  0.042  0.000  0.000  0.000  0.000  0.000  0.167
    4  0.000  0.125  0.000  0.042  0.000  0.000  0.000  0.000  0.000  0.167
tot    0.000  0.270  0.000  0.090  0.024  0.092  0.000  0.031  0.073  0.581
 
band    18 # energy    5.44551815 # occ.  1.00000000
 
ion      s     py     pz     px    dxy    dyz    dz2    dxz  x2-y2    tot
    1  0.000  0.022  0.000  0.007  0.003  0.000  0.000  0.000  0.008  0.040
    2  0.000  0.000  0.000  0.000  0.006  0.201  0.000  0.067  0.018  0.293
    3  0.000  0.114  0.000  0.038  0.000  0.002  0.000  0.001  0.000  0.156
    4  0.000  0.114  0.000  0.038  0.000  0.002  0.000  0.001  0.000  0.156
tot    0.000  0.251  0.000  0.084  0.009  0.207  0.000  0.069  0.026  0.645
 
band    19 # energy    5.49493179 # occ.  1.00000000
 
ion      s     py     pz     px    dxy    dyz    dz2    dxz  x2-y2    tot
    1  0.009  0.002  0.007  0.007  0.000  0.001  0.014  0.004  0.000  0.044
    2  0.004  0.001  0.001  0.003  0.084  0.052  0.045  0.156  0.028  0.373
    3  0.017  0.005  0.101  0.014  0.000  0.000  0.000  0.001  0.000  0.140
    4  0.017  0.005  0.101  0.014  0.000  0.000  0.000  0.001  0.000  0.140
tot    0.047  0.013  0.211  0.039  0.084  0.054  0.060  0.162  0.028  0.697
 
band    20 # energy    6.57908430 # occ.  0.00108828
 
ion      s     py     pz     px    dxy    dyz    dz2    dxz  x2-y2    tot
    1  0.003  0.000  0.000  0.001  0.149  0.058  0.191  0.173  0.050  0.625
    2  0.007  0.000  0.008  0.001  0.004  0.001  0.000  0.003  0.001  0.027
    3  0.003  0.000  0.007  0.000  0.004  0.001  0.003  0.002  0.001  0.020
    4  0.003  0.000  0.007  0.000  0.004  0.001  0.003  0.002  0.001  0.020
tot    0.016  0.001  0.021  0.002  0.160  0.060  0.197  0.179  0.053  0.690
 
band    21 # energy    7.41131078 # occ.  0.00000000
 
ion      s     py     pz     px    dxy    dyz    dz2    dxz  x2-y2    tot
    1  0.000  0.001  0.000  0.000  0.213  0.000  0.000  0.000  0.639  0.852
    2  0.000  0.003  0.000  0.001  0.000  0.002  0.000  0.001  0.000  0.008
    3  0.000  0.004  0.000  0.001  0.000  0.002  0.000  0.001  0.001  0.008
    4  0.000  0.004  0.000  0.001  0.000  0.002  0.000  0.001  0.001  0.008
tot    0.000  0.012  0.000  0.004  0.213  0.006  0.000  0.002  0.640  0.877
 
band    22 # energy    7.42062853 # occ.  0.00000000
 
ion      s     py     pz     px    dxy    dyz    dz2    dxz  x2-y2    tot
    1  0.008  0.000  0.001  0.000  0.269  0.001  0.401  0.004  0.090  0.774
    2  0.022  0.000  0.001  0.000  0.001  0.000  0.002  0.001  0.000  0.027
    3  0.003  0.001  0.006  0.004  0.000  0.001  0.000  0.002  0.000  0.018
    4  0.003  0.001  0.006  0.004  0.000  0.001  0.000  0.002  0.000  0.018
tot    0.037  0.003  0.014  0.009  0.271  0.003  0.404  0.008  0.090  0.838
 
band    23 # energy    7.74716069 # occ.  0.00000000
 
ion      s     py     pz     px    dxy    dyz    dz2    dxz  x2-y2    tot
    1  0.000  0.000  0.000  0.000  0.002  0.555  0.000  0.185  0.005  0.746
    2  0.000  0.017  0.000  0.006  0.000  0.000  0.000  0.000  0.001  0.024
    3  0.000  0.020  0.000  0.007  0.000  0.005  0.000  0.002  0.000  0.033
    4  0.000  0.020  0.000  0.007  0.000  0.005  0.000  0.002  0.000  0.033
tot    0.000  0.058  0.000  0.019  0.002  0.564  0.000  0.188  0.007  0.838
 
band    24 # energy    7.82529216 # occ.  0.00000000
 
ion      s     py     pz     px    dxy    dyz    dz2    dxz  x2-y2    tot
    1  0.015  0.002  0.002  0.007  0.004  0.090  0.130  0.269  0.001  0.521
    2  0.088  0.000  0.000  0.001  0.001  0.000  0.002  0.000  0.000  0.094
    3  0.022  0.003  0.003  0.009  0.002  0.002  0.000  0.006  0.001  0.048
    4  0.022  0.003  0.003  0.009  0.002  0.002  0.000  0.006  0.001  0.048
tot    0.147  0.009  0.009  0.027  0.009  0.094  0.132  0.282  0.003  0.711
 

 k-point    38 :    0.44736842 0.00000000 0.50000000     weight = 0.02500000

band     1 # energy  -44.23218324 # occ.  1.00000000
 
ion      s     py     pz     px    dxy    dyz    dz2    dxz  x2-y2    tot
    1  0.000  0.000  0.000  0.000  0.000  0.000  0.000  0.000  0.000  0.000
    2  0.000  0.247  0.000  0.748  0.000  0.000  0.000  0.000  0.000  0.995
    3  0.000  0.000  0.000  0.000  0.000  0.000  0.000  0.000  0.000  0.000
    4  0.000  0.000  0.000  0.000  0.000  0.000  0.000  0.000  0.000  0.000
tot    0.000  0.247  0.000  0.748  0.000  0.000  0.000  0.000  0.000  0.995
 
band     2 # energy  -44.23148622 # occ.  1.00000000
 
ion      s     py     pz     px    dxy    dyz    dz2    dxz  x2-y2    tot
    1  0.000  0.000  0.000  0.000  0.000  0.000  0.000  0.000  0.000  0.000
    2  0.000  0.749  0.000  0.247  0.000  0.000  0.000  0.000  0.000  0.995
    3  0.000  0.000  0.000  0.000  0.000  0.000  0.000  0.000  0.000  0.000
    4  0.000  0.000  0.000  0.000  0.000  0.000  0.000  0.000  0.000  0.000
tot    0.000  0.749  0.000  0.247  0.000  0.000  0.000  0.000  0.000  0.995
 
band     3 # energy  -44.22815468 # occ.  1.00000000
 
ion      s     py     pz     px    dxy    dyz    dz2    dxz  x2-y2    tot
    1  0.000  0.000  0.000  0.000  0.000  0.000  0.000  0.000  0.000  0.000
    2  0.000  0.000  0.995  0.000  0.000  0.000  0.000  0.000  0.000  0.995
    3  0.000  0.000  0.000  0.000  0.000  0.000  0.000  0.000  0.000  0.000
    4  0.000  0.000  0.000  0.000  0.000  0.000  0.000  0.000  0.000  0.000
tot    0.000  0.000  0.995  0.000  0.000  0.000  0.000  0.000  0.000  0.995
 
band     4 # energy  -39.85039584 # occ.  1.00000000
 
ion      s     py     pz     px    dxy    dyz    dz2    dxz  x2-y2    tot
    1  0.000  0.000  0.995  0.000  0.000  0.000  0.000  0.000  0.000  0.995
    2  0.000  0.000  0.000  0.000  0.000  0.000  0.000  0.000  0.000  0.000
    3  0.000  0.000  0.000  0.000  0.000  0.000  0.000  0.000  0.000  0.000
    4  0.000  0.000  0.000  0.000  0.000  0.000  0.000  0.000  0.000  0.000
tot    0.000  0.000  0.995  0.000  0.000  0.000  0.000  0.000  0.000  0.995
 
band     5 # energy  -39.84498960 # occ.  1.00000000
 
ion      s     py     pz     px    dxy    dyz    dz2    dxz  x2-y2    tot
    1  0.000  0.247  0.000  0.749  0.000  0.000  0.000  0.000  0.000  0.995
    2  0.000  0.000  0.000  0.000  0.000  0.000  0.000  0.000  0.000  0.000
    3  0.000  0.000  0.000  0.000  0.000  0.000  0.000  0.000  0.000  0.000
    4  0.000  0.000  0.000  0.000  0.000  0.000  0.000  0.000  0.000  0.000
tot    0.000  0.247  0.000  0.749  0.000  0.000  0.000  0.000  0.000  0.995
 
band     6 # energy  -39.84394632 # occ.  1.00000000
 
ion      s     py     pz     px    dxy    dyz    dz2    dxz  x2-y2    tot
    1  0.000  0.749  0.000  0.247  0.000  0.000  0.000  0.000  0.000  0.995
    2  0.000  0.000  0.000  0.000  0.000  0.000  0.000  0.000  0.000  0.000
    3  0.000  0.000  0.000  0.000  0.000  0.000  0.000  0.000  0.000  0.000
    4  0.000  0.000  0.000  0.000  0.000  0.000  0.000  0.000  0.000  0.000
tot    0.000  0.749  0.000  0.247  0.000  0.000  0.000  0.000  0.000  0.996
 
band     7 # energy   -4.72460179 # occ.  1.00000000
 
ion      s     py     pz     px    dxy    dyz    dz2    dxz  x2-y2    tot
    1  0.000  0.001  0.001  0.004  0.000  0.000  0.000  0.000  0.000  0.007
    2  0.004  0.000  0.000  0.000  0.003  0.002  0.000  0.007  0.001  0.019
    3  0.328  0.000  0.000  0.000  0.000  0.000  0.000  0.000  0.000  0.328
    4  0.328  0.000  0.000  0.000  0.000  0.000  0.000  0.000  0.000  0.328
tot    0.660  0.001  0.001  0.004  0.004  0.002  0.000  0.007  0.001  0.681
 
band     8 # energy   -4.70180806 # occ.  1.00000000
 
ion      s     py     pz     px    dxy    dyz    dz2    dxz  x2-y2    tot
    1  0.003  0.000  0.000  0.000  0.002  0.001  0.000  0.004  0.001  0.012
    2  0.001  0.002  0.001  0.005  0.000  0.000  0.000  0.000  0.000  0.008
    3  0.330  0.000  0.000  0.000  0.000  0.000  0.000  0.000  0.000  0.330
    4  0.330  0.000  0.000  0.000  0.000  0.000  0.000  0.000  0.000  0.330
tot    0.664  0.002  0.001  0.005  0.002  0.001  0.000  0.004  0.001  0.681
 
band     9 # energy    0.94157624 # occ.  1.00000000
 
ion      s     py     pz     px    dxy    dyz    dz2    dxz  x2-y2    tot
    1  0.000  0.002  0.009  0.006  0.001  0.000  0.000  0.001  0.000  0.019
    2  0.083  0.000  0.000  0.000  0.028  0.004  0.007  0.011  0.009  0.143
    3  0.002  0.025  0.021  0.075  0.000  0.000  0.000  0.000  0.000  0.123
    4  0.002  0.025  0.021  0.075  0.000  0.000  0.000  0.000  0.000  0.123
tot    0.088  0.052  0.050  0.156  0.029  0.004  0.007  0.012  0.010  0.408
 
band    10 # energy    1.19445702 # occ.  1.00000000
 
ion      s     py     pz     px    dxy    dyz    dz2    dxz  x2-y2    tot
    1  0.063  0.000  0.000  0.000  0.006  0.001  0.002  0.002  0.002  0.075
    2  0.000  0.003  0.013  0.009  0.006  0.002  0.000  0.005  0.002  0.040
    3  0.001  0.027  0.025  0.082  0.000  0.000  0.000  0.000  0.000  0.136
    4  0.001  0.027  0.025  0.082  0.000  0.000  0.000  0.000  0.000  0.136
tot    0.066  0.058  0.062  0.174  0.012  0.002  0.002  0.007  0.004  0.386
 
band    11 # energy    2.62785870 # occ.  1.00000000
 
ion      s     py     pz     px    dxy    dyz    dz2    dxz  x2-y2    tot
    1  0.000  0.001  0.006  0.004  0.000  0.000  0.000  0.000  0.000  0.011
    2  0.002  0.000  0.000  0.001  0.168  0.039  0.185  0.116  0.056  0.567
    3  0.001  0.003  0.059  0.009  0.001  0.000  0.000  0.000  0.000  0.072
    4  0.001  0.003  0.059  0.009  0.001  0.000  0.000  0.000  0.000  0.072
tot    0.003  0.007  0.124  0.022  0.170  0.039  0.185  0.116  0.057  0.722
 
band    12 # energy    2.63852548 # occ.  1.00000000
 
ion      s     py     pz     px    dxy    dyz    dz2    dxz  x2-y2    tot
    1  0.000  0.004  0.000  0.001  0.000  0.000  0.000  0.000  0.000  0.006
    2  0.000  0.000  0.000  0.000  0.013  0.430  0.000  0.143  0.039  0.625
    3  0.000  0.051  0.000  0.017  0.000  0.000  0.000  0.000  0.000  0.068
    4  0.000  0.051  0.000  0.017  0.000  0.000  0.000  0.000  0.000  0.068
tot    0.000  0.105  0.000  0.035  0.013  0.430  0.000  0.143  0.040  0.767
 
band    13 # energy    3.24741469 # occ.  1.00000000
 
ion      s     py     pz     px    dxy    dyz    dz2    dxz  x2-y2    tot
    1  0.000  0.001  0.001  0.002  0.000  0.000  0.001  0.000  0.000  0.004
    2  0.001  0.000  0.000  0.000  0.040  0.118  0.299  0.354  0.013  0.826
    3  0.001  0.000  0.011  0.001  0.000  0.000  0.001  0.000  0.000  0.015
    4  0.001  0.000  0.011  0.001  0.000  0.000  0.001  0.000  0.000  0.015
tot    0.003  0.001  0.024  0.003  0.041  0.118  0.301  0.355  0.014  0.860
 
band    14 # energy    3.44381318 # occ.  1.00000000
 
ion      s     py     pz     px    dxy    dyz    dz2    dxz  x2-y2    tot
    1  0.000  0.000  0.000  0.000  0.000  0.004  0.000  0.001  0.000  0.005
    2  0.000  0.001  0.000  0.000  0.200  0.054  0.000  0.018  0.600  0.873
    3  0.000  0.008  0.000  0.003  0.000  0.000  0.000  0.000  0.000  0.011
    4  0.000  0.008  0.000  0.003  0.000  0.000  0.000  0.000  0.000  0.011
tot    0.000  0.017  0.000  0.006  0.200  0.058  0.000  0.019  0.600  0.900
 
band    15 # energy    3.53141376 # occ.  1.00000000
 
ion      s     py     pz     px    dxy    dyz    dz2    dxz  x2-y2    tot
    1  0.002  0.000  0.000  0.000  0.008  0.004  0.005  0.013  0.003  0.036
    2  0.016  0.001  0.004  0.002  0.262  0.013  0.235  0.038  0.087  0.658
    3  0.001  0.004  0.035  0.011  0.000  0.000  0.000  0.000  0.000  0.051
    4  0.001  0.004  0.035  0.011  0.000  0.000  0.000  0.000  0.000  0.051
tot    0.020  0.008  0.074  0.024  0.271  0.017  0.240  0.051  0.090  0.795
 
band    16 # energy    3.84467613 # occ.  1.00000000
 
ion      s     py     pz     px    dxy    dyz    dz2    dxz  x2-y2    tot
    1  0.002  0.000  0.000  0.001  0.027  0.010  0.017  0.030  0.009  0.097
    2  0.002  0.003  0.011  0.010  0.075  0.001  0.136  0.002  0.025  0.265
    3  0.001  0.005  0.108  0.016  0.001  0.000  0.000  0.000  0.000  0.132
    4  0.001  0.005  0.108  0.016  0.001  0.000  0.000  0.000  0.000  0.132
tot    0.005  0.015  0.228  0.044  0.103  0.011  0.153  0.033  0.034  0.625
 
band    17 # energy    3.93452836 # occ.  1.00000000
 
ion      s     py     pz     px    dxy    dyz    dz2    dxz  x2-y2    tot
    1  0.000  0.000  0.000  0.000  0.003  0.088  0.000  0.029  0.010  0.130
    2  0.000  0.021  0.000  0.007  0.013  0.003  0.000  0.001  0.038  0.083
    3  0.000  0.130  0.000  0.043  0.000  0.000  0.000  0.000  0.000  0.174
    4  0.000  0.130  0.000  0.043  0.000  0.000  0.000  0.000  0.000  0.174
tot    0.000  0.282  0.000  0.094  0.016  0.091  0.000  0.030  0.048  0.561
 
band    18 # energy    5.44231082 # occ.  1.00000000
 
ion      s     py     pz     px    dxy    dyz    dz2    dxz  x2-y2    tot
    1  0.000  0.022  0.000  0.007  0.001  0.000  0.000  0.000  0.004  0.035
    2  0.000  0.000  0.000  0.000  0.006  0.207  0.000  0.069  0.017  0.298
    3  0.000  0.114  0.000  0.038  0.000  0.002  0.000  0.001  0.000  0.156
    4  0.000  0.114  0.000  0.038  0.000  0.002  0.000  0.001  0.000  0.156
tot    0.000  0.252  0.000  0.084  0.007  0.212  0.000  0.071  0.020  0.645
 
band    19 # energy    5.58389295 # occ.  1.00000000
 
ion      s     py     pz     px    dxy    dyz    dz2    dxz  x2-y2    tot
    1  0.005  0.003  0.006  0.009  0.000  0.001  0.009  0.002  0.000  0.035
    2  0.005  0.000  0.001  0.001  0.093  0.052  0.039  0.155  0.031  0.378
    3  0.018  0.004  0.107  0.013  0.000  0.000  0.000  0.001  0.000  0.144
    4  0.018  0.004  0.107  0.013  0.000  0.000  0.000  0.001  0.000  0.144
tot    0.046  0.012  0.222  0.037  0.093  0.053  0.049  0.158  0.031  0.701
 
band    20 # energy    6.56076743 # occ.  0.00543361
 
ion      s     py     pz     px    dxy    dyz    dz2    dxz  x2-y2    tot
    1  0.002  0.000  0.000  0.001  0.133  0.061  0.213  0.182  0.044  0.635
    2  0.004  0.001  0.009  0.002  0.003  0.001  0.000  0.002  0.001  0.021
    3  0.002  0.000  0.006  0.000  0.003  0.001  0.003  0.002  0.001  0.018
    4  0.002  0.000  0.006  0.000  0.003  0.001  0.003  0.002  0.001  0.018
tot    0.009  0.001  0.021  0.003  0.142  0.063  0.219  0.188  0.047  0.691
 
band    21 # energy    7.39894486 # occ.  0.00000000
 
ion      s     py     pz     px    dxy    dyz    dz2    dxz  x2-y2    tot
    1  0.000  0.000  0.000  0.000  0.214  0.001  0.000  0.000  0.642  0.858
    2  0.000  0.004  0.000  0.001  0.000  0.001  0.000  0.000  0.000  0.006
    3  0.000  0.003  0.000  0.001  0.000  0.002  0.000  0.001  0.001  0.007
    4  0.000  0.003  0.000  0.001  0.000  0.002  0.000  0.001  0.001  0.007
tot    0.000  0.009  0.000  0.003  0.214  0.006  0.000  0.002  0.643  0.877
 
band    22 # energy    7.44164175 # occ.  0.00000000
 
ion      s     py     pz     px    dxy    dyz    dz2    dxz  x2-y2    tot
    1  0.015  0.000  0.001  0.000  0.270  0.001  0.440  0.002  0.090  0.818
    2  0.010  0.000  0.001  0.000  0.001  0.000  0.001  0.001  0.000  0.013
    3  0.001  0.001  0.003  0.003  0.000  0.000  0.000  0.001  0.000  0.011
    4  0.001  0.001  0.003  0.003  0.000  0.000  0.000  0.001  0.000  0.011
tot    0.027  0.002  0.009  0.005  0.271  0.002  0.442  0.005  0.090  0.853
 
band    23 # energy    7.74591093 # occ.  0.00000000
 
ion      s     py     pz     px    dxy    dyz    dz2    dxz  x2-y2    tot
    1  0.000  0.000  0.000  0.000  0.003  0.554  0.000  0.185  0.009  0.750
    2  0.000  0.017  0.000  0.006  0.000  0.000  0.000  0.000  0.001  0.024
    3  0.000  0.019  0.000  0.006  0.000  0.005  0.000  0.002  0.000  0.032
    4  0.000  0.019  0.000  0.006  0.000  0.005  0.000  0.002  0.000  0.032
tot    0.000  0.056  0.000  0.019  0.003  0.563  0.000  0.188  0.010  0.839
 
band    24 # energy    7.87691948 # occ.  0.00000000
 
ion      s     py     pz     px    dxy    dyz    dz2    dxz  x2-y2    tot
    1  0.015  0.003  0.003  0.008  0.016  0.071  0.061  0.212  0.005  0.393
    2  0.116  0.001  0.000  0.002  0.001  0.000  0.003  0.001  0.000  0.125
    3  0.025  0.004  0.004  0.013  0.003  0.003  0.000  0.008  0.001  0.061
    4  0.025  0.004  0.004  0.013  0.003  0.003  0.000  0.008  0.001  0.061
tot    0.180  0.012  0.012  0.036  0.023  0.076  0.064  0.228  0.008  0.639
 

 k-point    39 :    0.47368421 0.00000000 0.50000000     weight = 0.02500000

band     1 # energy  -44.23220567 # occ.  1.00000000
 
ion      s     py     pz     px    dxy    dyz    dz2    dxz  x2-y2    tot
    1  0.000  0.000  0.000  0.000  0.000  0.000  0.000  0.000  0.000  0.000
    2  0.000  0.247  0.000  0.748  0.000  0.000  0.000  0.000  0.000  0.995
    3  0.000  0.000  0.000  0.000  0.000  0.000  0.000  0.000  0.000  0.000
    4  0.000  0.000  0.000  0.000  0.000  0.000  0.000  0.000  0.000  0.000
tot    0.000  0.247  0.000  0.748  0.000  0.000  0.000  0.000  0.000  0.995
 
band     2 # energy  -44.23148793 # occ.  1.00000000
 
ion      s     py     pz     px    dxy    dyz    dz2    dxz  x2-y2    tot
    1  0.000  0.000  0.000  0.000  0.000  0.000  0.000  0.000  0.000  0.000
    2  0.000  0.748  0.000  0.247  0.000  0.000  0.000  0.000  0.000  0.995
    3  0.000  0.000  0.000  0.000  0.000  0.000  0.000  0.000  0.000  0.000
    4  0.000  0.000  0.000  0.000  0.000  0.000  0.000  0.000  0.000  0.000
tot    0.000  0.748  0.000  0.247  0.000  0.000  0.000  0.000  0.000  0.995
 
band     3 # energy  -44.22814933 # occ.  1.00000000
 
ion      s     py     pz     px    dxy    dyz    dz2    dxz  x2-y2    tot
    1  0.000  0.000  0.000  0.000  0.000  0.000  0.000  0.000  0.000  0.000
    2  0.000  0.000  0.995  0.000  0.000  0.000  0.000  0.000  0.000  0.995
    3  0.000  0.000  0.000  0.000  0.000  0.000  0.000  0.000  0.000  0.000
    4  0.000  0.000  0.000  0.000  0.000  0.000  0.000  0.000  0.000  0.000
tot    0.000  0.000  0.995  0.000  0.000  0.000  0.000  0.000  0.000  0.995
 
band     4 # energy  -39.85038794 # occ.  1.00000000
 
ion      s     py     pz     px    dxy    dyz    dz2    dxz  x2-y2    tot
    1  0.000  0.000  0.995  0.000  0.000  0.000  0.000  0.000  0.000  0.995
    2  0.000  0.000  0.000  0.000  0.000  0.000  0.000  0.000  0.000  0.000
    3  0.000  0.000  0.000  0.000  0.000  0.000  0.000  0.000  0.000  0.000
    4  0.000  0.000  0.000  0.000  0.000  0.000  0.000  0.000  0.000  0.000
tot    0.000  0.000  0.995  0.000  0.000  0.000  0.000  0.000  0.000  0.995
 
band     5 # energy  -39.84502470 # occ.  1.00000000
 
ion      s     py     pz     px    dxy    dyz    dz2    dxz  x2-y2    tot
    1  0.000  0.247  0.000  0.749  0.000  0.000  0.000  0.000  0.000  0.995
    2  0.000  0.000  0.000  0.000  0.000  0.000  0.000  0.000  0.000  0.000
    3  0.000  0.000  0.000  0.000  0.000  0.000  0.000  0.000  0.000  0.000
    4  0.000  0.000  0.000  0.000  0.000  0.000  0.000  0.000  0.000  0.000
tot    0.000  0.247  0.000  0.749  0.000  0.000  0.000  0.000  0.000  0.995
 
band     6 # energy  -39.84395000 # occ.  1.00000000
 
ion      s     py     pz     px    dxy    dyz    dz2    dxz  x2-y2    tot
    1  0.000  0.749  0.000  0.247  0.000  0.000  0.000  0.000  0.000  0.995
    2  0.000  0.000  0.000  0.000  0.000  0.000  0.000  0.000  0.000  0.000
    3  0.000  0.000  0.000  0.000  0.000  0.000  0.000  0.000  0.000  0.000
    4  0.000  0.000  0.000  0.000  0.000  0.000  0.000  0.000  0.000  0.000
tot    0.000  0.749  0.000  0.247  0.000  0.000  0.000  0.000  0.000  0.996
 
band     7 # energy   -4.70555975 # occ.  1.00000000
 
ion      s     py     pz     px    dxy    dyz    dz2    dxz  x2-y2    tot
    1  0.000  0.001  0.001  0.004  0.000  0.000  0.000  0.000  0.000  0.006
    2  0.004  0.000  0.000  0.000  0.004  0.002  0.000  0.007  0.001  0.019
    3  0.329  0.000  0.000  0.000  0.000  0.000  0.000  0.000  0.000  0.329
    4  0.329  0.000  0.000  0.000  0.000  0.000  0.000  0.000  0.000  0.329
tot    0.662  0.001  0.001  0.004  0.004  0.002  0.000  0.007  0.001  0.683
 
band     8 # energy   -4.68130202 # occ.  1.00000000
 
ion      s     py     pz     px    dxy    dyz    dz2    dxz  x2-y2    tot
    1  0.003  0.000  0.000  0.000  0.002  0.001  0.000  0.004  0.001  0.012
    2  0.000  0.002  0.001  0.005  0.000  0.000  0.000  0.000  0.000  0.008
    3  0.332  0.000  0.000  0.000  0.000  0.000  0.000  0.000  0.000  0.332
    4  0.332  0.000  0.000  0.000  0.000  0.000  0.000  0.000  0.000  0.332
tot    0.666  0.002  0.001  0.005  0.002  0.001  0.000  0.004  0.001  0.683
 
band     9 # energy    0.89670316 # occ.  1.00000000
 
ion      s     py     pz     px    dxy    dyz    dz2    dxz  x2-y2    tot
    1  0.000  0.002  0.009  0.006  0.000  0.000  0.000  0.000  0.000  0.018
    2  0.084  0.000  0.000  0.000  0.027  0.004  0.007  0.011  0.009  0.143
    3  0.001  0.025  0.020  0.075  0.000  0.000  0.000  0.000  0.000  0.121
    4  0.001  0.025  0.020  0.075  0.000  0.000  0.000  0.000  0.000  0.121
tot    0.086  0.052  0.049  0.157  0.027  0.004  0.007  0.012  0.009  0.403
 
band    10 # energy    1.16383580 # occ.  1.00000000
 
ion      s     py     pz     px    dxy    dyz    dz2    dxz  x2-y2    tot
    1  0.064  0.000  0.000  0.000  0.006  0.001  0.002  0.002  0.002  0.076
    2  0.000  0.003  0.014  0.010  0.001  0.000  0.000  0.001  0.000  0.031
    3  0.000  0.028  0.024  0.084  0.000  0.000  0.000  0.000  0.000  0.136
    4  0.000  0.028  0.024  0.084  0.000  0.000  0.000  0.000  0.000  0.136
tot    0.065  0.059  0.061  0.177  0.008  0.001  0.002  0.003  0.003  0.378
 
band    11 # energy    2.60894751 # occ.  1.00000000
 
ion      s     py     pz     px    dxy    dyz    dz2    dxz  x2-y2    tot
    1  0.000  0.001  0.005  0.004  0.000  0.000  0.000  0.000  0.000  0.011
    2  0.003  0.000  0.000  0.000  0.181  0.041  0.166  0.122  0.060  0.573
    3  0.000  0.003  0.060  0.008  0.001  0.000  0.000  0.000  0.000  0.071
    4  0.000  0.003  0.060  0.008  0.001  0.000  0.000  0.000  0.000  0.071
tot    0.004  0.006  0.125  0.019  0.183  0.041  0.166  0.122  0.061  0.726
 
band    12 # energy    2.63326667 # occ.  1.00000000
 
ion      s     py     pz     px    dxy    dyz    dz2    dxz  x2-y2    tot
    1  0.000  0.004  0.000  0.001  0.000  0.000  0.000  0.000  0.000  0.006
    2  0.000  0.000  0.000  0.000  0.012  0.431  0.000  0.144  0.037  0.623
    3  0.000  0.051  0.000  0.017  0.000  0.000  0.000  0.000  0.000  0.069
    4  0.000  0.051  0.000  0.017  0.000  0.000  0.000  0.000  0.000  0.069
tot    0.000  0.106  0.000  0.035  0.013  0.431  0.000  0.144  0.038  0.766
 
band    13 # energy    3.24559436 # occ.  1.00000000
 
ion      s     py     pz     px    dxy    dyz    dz2    dxz  x2-y2    tot
    1  0.000  0.001  0.001  0.002  0.000  0.000  0.000  0.000  0.000  0.003
    2  0.001  0.000  0.000  0.000  0.045  0.118  0.302  0.355  0.015  0.836
    3  0.001  0.000  0.010  0.000  0.000  0.000  0.001  0.000  0.000  0.013
    4  0.001  0.000  0.010  0.000  0.000  0.000  0.001  0.000  0.000  0.013
tot    0.003  0.001  0.020  0.002  0.046  0.119  0.303  0.356  0.015  0.865
 
band    14 # energy    3.46823289 # occ.  1.00000000
 
ion      s     py     pz     px    dxy    dyz    dz2    dxz  x2-y2    tot
    1  0.000  0.000  0.000  0.000  0.000  0.001  0.000  0.000  0.000  0.002
    2  0.000  0.000  0.000  0.000  0.210  0.053  0.000  0.018  0.629  0.910
    3  0.000  0.003  0.000  0.001  0.000  0.000  0.000  0.000  0.000  0.004
    4  0.000  0.003  0.000  0.001  0.000  0.000  0.000  0.000  0.000  0.004
tot    0.000  0.006  0.000  0.002  0.210  0.054  0.000  0.018  0.630  0.919
 
band    15 # energy    3.58218377 # occ.  1.00000000
 
ion      s     py     pz     px    dxy    dyz    dz2    dxz  x2-y2    tot
    1  0.001  0.000  0.000  0.000  0.005  0.002  0.003  0.007  0.002  0.020
    2  0.016  0.000  0.002  0.001  0.281  0.012  0.318  0.036  0.094  0.761
    3  0.001  0.003  0.020  0.008  0.000  0.000  0.000  0.000  0.000  0.032
    4  0.001  0.003  0.020  0.008  0.000  0.000  0.000  0.000  0.000  0.032
tot    0.018  0.006  0.042  0.018  0.286  0.015  0.321  0.044  0.095  0.844
 
band    16 # energy    3.78366286 # occ.  1.00000000
 
ion      s     py     pz     px    dxy    dyz    dz2    dxz  x2-y2    tot
    1  0.003  0.000  0.000  0.000  0.032  0.013  0.018  0.038  0.011  0.116
    2  0.001  0.004  0.013  0.012  0.041  0.001  0.071  0.002  0.014  0.158
    3  0.001  0.006  0.125  0.018  0.001  0.000  0.000  0.000  0.000  0.151
    4  0.001  0.006  0.125  0.018  0.001  0.000  0.000  0.000  0.000  0.151
tot    0.007  0.016  0.263  0.047  0.074  0.013  0.089  0.040  0.025  0.576
 
band    17 # energy    3.89930812 # occ.  1.00000000
 
ion      s     py     pz     px    dxy    dyz    dz2    dxz  x2-y2    tot
    1  0.000  0.000  0.000  0.000  0.003  0.090  0.000  0.030  0.010  0.132
    2  0.000  0.022  0.000  0.007  0.004  0.001  0.000  0.000  0.012  0.047
    3  0.000  0.136  0.000  0.045  0.000  0.000  0.000  0.000  0.000  0.181
    4  0.000  0.136  0.000  0.045  0.000  0.000  0.000  0.000  0.000  0.181
tot    0.000  0.294  0.000  0.098  0.007  0.091  0.000  0.030  0.022  0.542
 
band    18 # energy    5.44074896 # occ.  1.00000000
 
ion      s     py     pz     px    dxy    dyz    dz2    dxz  x2-y2    tot
    1  0.000  0.023  0.000  0.008  0.000  0.000  0.000  0.000  0.001  0.032
    2  0.000  0.000  0.000  0.000  0.005  0.210  0.000  0.070  0.016  0.301
    3  0.000  0.115  0.000  0.038  0.000  0.002  0.000  0.001  0.000  0.156
    4  0.000  0.115  0.000  0.038  0.000  0.002  0.000  0.001  0.000  0.156
tot    0.000  0.252  0.000  0.084  0.006  0.215  0.000  0.072  0.017  0.645
 
band    19 # energy    5.64497688 # occ.  1.00000000
 
ion      s     py     pz     px    dxy    dyz    dz2    dxz  x2-y2    tot
    1  0.001  0.003  0.006  0.010  0.000  0.000  0.003  0.001  0.000  0.025
    2  0.006  0.000  0.000  0.000  0.099  0.052  0.036  0.155  0.033  0.382
    3  0.019  0.004  0.112  0.013  0.000  0.000  0.000  0.000  0.000  0.149
    4  0.019  0.004  0.112  0.013  0.000  0.000  0.000  0.000  0.000  0.149
tot    0.045  0.012  0.230  0.036  0.100  0.052  0.039  0.156  0.033  0.705
 
band    20 # energy    6.54636419 # occ.  0.01619539
 
ion      s     py     pz     px    dxy    dyz    dz2    dxz  x2-y2    tot
    1  0.001  0.000  0.000  0.000  0.122  0.063  0.230  0.188  0.041  0.644
    2  0.001  0.001  0.010  0.002  0.001  0.000  0.000  0.001  0.000  0.016
    3  0.001  0.000  0.005  0.000  0.003  0.001  0.003  0.002  0.001  0.016
    4  0.001  0.000  0.005  0.000  0.003  0.001  0.003  0.002  0.001  0.016
tot    0.003  0.001  0.020  0.003  0.129  0.064  0.236  0.192  0.043  0.692
 
band    21 # energy    7.39122650 # occ.  0.00000000
 
ion      s     py     pz     px    dxy    dyz    dz2    dxz  x2-y2    tot
    1  0.000  0.000  0.000  0.000  0.215  0.002  0.000  0.001  0.644  0.861
    2  0.000  0.004  0.000  0.001  0.000  0.000  0.000  0.000  0.000  0.005
    3  0.000  0.002  0.000  0.001  0.000  0.002  0.000  0.001  0.001  0.006
    4  0.000  0.002  0.000  0.001  0.000  0.002  0.000  0.001  0.001  0.006
tot    0.000  0.008  0.000  0.003  0.215  0.006  0.000  0.002  0.645  0.878
 
band    22 # energy    7.44991054 # occ.  0.00000000
 
ion      s     py     pz     px    dxy    dyz    dz2    dxz  x2-y2    tot
    1  0.021  0.000  0.000  0.000  0.265  0.004  0.456  0.012  0.088  0.847
    2  0.002  0.000  0.001  0.000  0.000  0.000  0.000  0.000  0.000  0.004
    3  0.000  0.000  0.001  0.001  0.000  0.000  0.000  0.001  0.000  0.005
    4  0.000  0.000  0.001  0.001  0.000  0.000  0.000  0.001  0.000  0.005
tot    0.024  0.001  0.003  0.003  0.266  0.005  0.457  0.014  0.089  0.861
 
band    23 # energy    7.74524325 # occ.  0.00000000
 
ion      s     py     pz     px    dxy    dyz    dz2    dxz  x2-y2    tot
    1  0.000  0.000  0.000  0.000  0.004  0.553  0.000  0.184  0.011  0.753
    2  0.000  0.017  0.000  0.006  0.000  0.000  0.000  0.000  0.000  0.023
    3  0.000  0.019  0.000  0.006  0.000  0.005  0.000  0.002  0.000  0.032
    4  0.000  0.019  0.000  0.006  0.000  0.005  0.000  0.002  0.000  0.032
tot    0.000  0.055  0.000  0.018  0.004  0.562  0.000  0.187  0.012  0.839
 
band    24 # energy    7.95134126 # occ.  0.00000000
 
ion      s     py     pz     px    dxy    dyz    dz2    dxz  x2-y2    tot
    1  0.010  0.003  0.004  0.008  0.024  0.041  0.021  0.123  0.008  0.241
    2  0.152  0.001  0.000  0.003  0.000  0.001  0.004  0.003  0.000  0.163
    3  0.024  0.006  0.006  0.019  0.004  0.003  0.000  0.010  0.001  0.075
    4  0.024  0.006  0.006  0.019  0.004  0.003  0.000  0.010  0.001  0.075
tot    0.211  0.016  0.017  0.049  0.033  0.048  0.025  0.144  0.011  0.555
 

 k-point    40 :    0.50000000 0.00000000 0.50000000     weight = 0.02500000

band     1 # energy  -44.23221727 # occ.  1.00000000
 
ion      s     py     pz     px    dxy    dyz    dz2    dxz  x2-y2    tot
    1  0.000  0.000  0.000  0.000  0.000  0.000  0.000  0.000  0.000  0.000
    2  0.000  0.247  0.000  0.748  0.000  0.000  0.000  0.000  0.000  0.995
    3  0.000  0.000  0.000  0.000  0.000  0.000  0.000  0.000  0.000  0.000
    4  0.000  0.000  0.000  0.000  0.000  0.000  0.000  0.000  0.000  0.000
tot    0.000  0.247  0.000  0.748  0.000  0.000  0.000  0.000  0.000  0.995
 
band     2 # energy  -44.23148879 # occ.  1.00000000
 
ion      s     py     pz     px    dxy    dyz    dz2    dxz  x2-y2    tot
    1  0.000  0.000  0.000  0.000  0.000  0.000  0.000  0.000  0.000  0.000
    2  0.000  0.748  0.000  0.247  0.000  0.000  0.000  0.000  0.000  0.995
    3  0.000  0.000  0.000  0.000  0.000  0.000  0.000  0.000  0.000  0.000
    4  0.000  0.000  0.000  0.000  0.000  0.000  0.000  0.000  0.000  0.000
tot    0.000  0.748  0.000  0.247  0.000  0.000  0.000  0.000  0.000  0.995
 
band     3 # energy  -44.22814147 # occ.  1.00000000
 
ion      s     py     pz     px    dxy    dyz    dz2    dxz  x2-y2    tot
    1  0.000  0.000  0.000  0.000  0.000  0.000  0.000  0.000  0.000  0.000
    2  0.000  0.000  0.995  0.000  0.000  0.000  0.000  0.000  0.000  0.995
    3  0.000  0.000  0.000  0.000  0.000  0.000  0.000  0.000  0.000  0.000
    4  0.000  0.000  0.000  0.000  0.000  0.000  0.000  0.000  0.000  0.000
tot    0.000  0.000  0.995  0.000  0.000  0.000  0.000  0.000  0.000  0.995
 
band     4 # energy  -39.85037933 # occ.  1.00000000
 
ion      s     py     pz     px    dxy    dyz    dz2    dxz  x2-y2    tot
    1  0.000  0.000  0.995  0.000  0.000  0.000  0.000  0.000  0.000  0.995
    2  0.000  0.000  0.000  0.000  0.000  0.000  0.000  0.000  0.000  0.000
    3  0.000  0.000  0.000  0.000  0.000  0.000  0.000  0.000  0.000  0.000
    4  0.000  0.000  0.000  0.000  0.000  0.000  0.000  0.000  0.000  0.000
tot    0.000  0.000  0.995  0.000  0.000  0.000  0.000  0.000  0.000  0.995
 
band     5 # energy  -39.84504232 # occ.  1.00000000
 
ion      s     py     pz     px    dxy    dyz    dz2    dxz  x2-y2    tot
    1  0.000  0.247  0.000  0.749  0.000  0.000  0.000  0.000  0.000  0.995
    2  0.000  0.000  0.000  0.000  0.000  0.000  0.000  0.000  0.000  0.000
    3  0.000  0.000  0.000  0.000  0.000  0.000  0.000  0.000  0.000  0.000
    4  0.000  0.000  0.000  0.000  0.000  0.000  0.000  0.000  0.000  0.000
tot    0.000  0.247  0.000  0.749  0.000  0.000  0.000  0.000  0.000  0.995
 
band     6 # energy  -39.84395201 # occ.  1.00000000
 
ion      s     py     pz     px    dxy    dyz    dz2    dxz  x2-y2    tot
    1  0.000  0.749  0.000  0.247  0.000  0.000  0.000  0.000  0.000  0.995
    2  0.000  0.000  0.000  0.000  0.000  0.000  0.000  0.000  0.000  0.000
    3  0.000  0.000  0.000  0.000  0.000  0.000  0.000  0.000  0.000  0.000
    4  0.000  0.000  0.000  0.000  0.000  0.000  0.000  0.000  0.000  0.000
tot    0.000  0.749  0.000  0.247  0.000  0.000  0.000  0.000  0.000  0.996
 
band     7 # energy   -4.69910558 # occ.  1.00000000
 
ion      s     py     pz     px    dxy    dyz    dz2    dxz  x2-y2    tot
    1  0.000  0.001  0.001  0.004  0.000  0.000  0.000  0.000  0.000  0.006
    2  0.004  0.000  0.000  0.000  0.004  0.002  0.000  0.007  0.001  0.019
    3  0.329  0.000  0.000  0.000  0.000  0.000  0.000  0.000  0.000  0.330
    4  0.329  0.000  0.000  0.000  0.000  0.000  0.000  0.000  0.000  0.330
tot    0.663  0.001  0.001  0.004  0.004  0.002  0.000  0.007  0.001  0.684
 
band     8 # energy   -4.67432676 # occ.  1.00000000
 
ion      s     py     pz     px    dxy    dyz    dz2    dxz  x2-y2    tot
    1  0.003  0.000  0.000  0.000  0.002  0.001  0.000  0.004  0.001  0.012
    2  0.000  0.002  0.001  0.005  0.000  0.000  0.000  0.000  0.000  0.008
    3  0.332  0.000  0.000  0.000  0.000  0.000  0.000  0.000  0.000  0.332
    4  0.332  0.000  0.000  0.000  0.000  0.000  0.000  0.000  0.000  0.332
tot    0.667  0.002  0.001  0.005  0.002  0.001  0.000  0.004  0.001  0.684
 
band     9 # energy    0.88156485 # occ.  1.00000000
 
ion      s     py     pz     px    dxy    dyz    dz2    dxz  x2-y2    tot
    1  0.000  0.002  0.009  0.006  0.000  0.000  0.000  0.000  0.000  0.018
    2  0.084  0.000  0.000  0.000  0.027  0.004  0.007  0.011  0.009  0.143
    3  0.000  0.025  0.020  0.076  0.000  0.000  0.000  0.000  0.000  0.121
    4  0.000  0.025  0.020  0.076  0.000  0.000  0.000  0.000  0.000  0.121
tot    0.085  0.052  0.048  0.157  0.027  0.004  0.007  0.012  0.009  0.402
 
band    10 # energy    1.15343509 # occ.  1.00000000
 
ion      s     py     pz     px    dxy    dyz    dz2    dxz  x2-y2    tot
    1  0.064  0.000  0.000  0.000  0.006  0.001  0.002  0.002  0.002  0.077
    2  0.000  0.003  0.014  0.010  0.000  0.000  0.000  0.000  0.000  0.027
    3  0.000  0.028  0.023  0.084  0.000  0.000  0.000  0.000  0.000  0.136
    4  0.000  0.028  0.023  0.084  0.000  0.000  0.000  0.000  0.000  0.136
tot    0.064  0.059  0.061  0.178  0.006  0.001  0.002  0.002  0.002  0.375
 
band    11 # energy    2.60237755 # occ.  1.00000000
 
ion      s     py     pz     px    dxy    dyz    dz2    dxz  x2-y2    tot
    1  0.000  0.001  0.005  0.004  0.000  0.000  0.000  0.000  0.000  0.010
    2  0.003  0.000  0.000  0.000  0.185  0.041  0.160  0.123  0.062  0.575
    3  0.000  0.002  0.060  0.007  0.001  0.000  0.000  0.000  0.000  0.071
    4  0.000  0.002  0.060  0.007  0.001  0.000  0.000  0.000  0.000  0.071
tot    0.004  0.006  0.125  0.019  0.187  0.041  0.160  0.123  0.062  0.728
 
band    12 # energy    2.63148192 # occ.  1.00000000
 
ion      s     py     pz     px    dxy    dyz    dz2    dxz  x2-y2    tot
    1  0.000  0.004  0.000  0.001  0.000  0.000  0.000  0.000  0.000  0.006
    2  0.000  0.000  0.000  0.000  0.012  0.431  0.000  0.144  0.036  0.623
    3  0.000  0.051  0.000  0.017  0.000  0.000  0.000  0.000  0.000  0.069
    4  0.000  0.051  0.000  0.017  0.000  0.000  0.000  0.000  0.000  0.069
tot    0.000  0.106  0.000  0.035  0.012  0.431  0.000  0.144  0.037  0.766
 
band    13 # energy    3.24510953 # occ.  1.00000000
 
ion      s     py     pz     px    dxy    dyz    dz2    dxz  x2-y2    tot
    1  0.000  0.000  0.001  0.001  0.000  0.000  0.000  0.000  0.000  0.003
    2  0.001  0.000  0.000  0.000  0.047  0.118  0.302  0.355  0.016  0.840
    3  0.001  0.000  0.009  0.000  0.000  0.000  0.001  0.000  0.000  0.012
    4  0.001  0.000  0.009  0.000  0.000  0.000  0.001  0.000  0.000  0.012
tot    0.004  0.000  0.019  0.001  0.048  0.119  0.303  0.356  0.016  0.867
 
band    14 # energy    3.47744572 # occ.  1.00000000
 
ion      s     py     pz     px    dxy    dyz    dz2    dxz  x2-y2    tot
    1  0.000  0.000  0.000  0.000  0.000  0.000  0.000  0.000  0.000  0.000
    2  0.000  0.000  0.000  0.000  0.214  0.053  0.000  0.018  0.643  0.927
    3  0.000  0.000  0.000  0.000  0.000  0.000  0.000  0.000  0.000  0.000
    4  0.000  0.000  0.000  0.000  0.000  0.000  0.000  0.000  0.000  0.000
tot    0.000  0.000  0.000  0.000  0.214  0.053  0.000  0.018  0.643  0.927
 
band    15 # energy    3.61030806 # occ.  1.00000000
 
ion      s     py     pz     px    dxy    dyz    dz2    dxz  x2-y2    tot
    1  0.000  0.000  0.000  0.000  0.000  0.000  0.000  0.000  0.000  0.001
    2  0.017  0.000  0.000  0.000  0.316  0.013  0.396  0.038  0.105  0.884
    3  0.000  0.002  0.000  0.006  0.000  0.000  0.000  0.000  0.000  0.008
    4  0.000  0.002  0.000  0.006  0.000  0.000  0.000  0.000  0.000  0.008
tot    0.017  0.004  0.001  0.012  0.316  0.013  0.396  0.038  0.105  0.902
 
band    16 # energy    3.75220500 # occ.  1.00000000
 
ion      s     py     pz     px    dxy    dyz    dz2    dxz  x2-y2    tot
    1  0.004  0.000  0.000  0.000  0.038  0.015  0.020  0.046  0.013  0.136
    2  0.000  0.005  0.015  0.014  0.000  0.000  0.000  0.000  0.000  0.033
    3  0.002  0.007  0.145  0.020  0.001  0.000  0.000  0.000  0.000  0.175
    4  0.002  0.007  0.145  0.020  0.001  0.000  0.000  0.000  0.000  0.175
tot    0.008  0.018  0.306  0.053  0.040  0.015  0.020  0.046  0.013  0.519
 
band    17 # energy    3.88646150 # occ.  1.00000000
 
ion      s     py     pz     px    dxy    dyz    dz2    dxz  x2-y2    tot
    1  0.000  0.000  0.000  0.000  0.003  0.091  0.000  0.030  0.009  0.133
    2  0.000  0.023  0.000  0.008  0.000  0.000  0.000  0.000  0.000  0.031
    3  0.000  0.138  0.000  0.046  0.000  0.000  0.000  0.000  0.000  0.185
    4  0.000  0.138  0.000  0.046  0.000  0.000  0.000  0.000  0.000  0.185
tot    0.000  0.299  0.000  0.100  0.003  0.091  0.000  0.030  0.010  0.533
 
band    18 # energy    5.44029017 # occ.  1.00000000
 
ion      s     py     pz     px    dxy    dyz    dz2    dxz  x2-y2    tot
    1  0.000  0.023  0.000  0.008  0.000  0.000  0.000  0.000  0.000  0.031
    2  0.000  0.000  0.000  0.000  0.005  0.211  0.000  0.070  0.015  0.302
    3  0.000  0.115  0.000  0.038  0.000  0.002  0.000  0.001  0.000  0.156
    4  0.000  0.115  0.000  0.038  0.000  0.002  0.000  0.001  0.000  0.156
tot    0.000  0.252  0.000  0.084  0.005  0.216  0.000  0.072  0.015  0.645
 
band    19 # energy    5.66691609 # occ.  1.00000000
 
ion      s     py     pz     px    dxy    dyz    dz2    dxz  x2-y2    tot
    1  0.000  0.004  0.006  0.011  0.000  0.000  0.000  0.000  0.000  0.021
    2  0.007  0.000  0.000  0.000  0.102  0.052  0.035  0.155  0.034  0.384
    3  0.019  0.004  0.114  0.012  0.000  0.000  0.000  0.000  0.000  0.150
    4  0.019  0.004  0.114  0.012  0.000  0.000  0.000  0.000  0.000  0.150
tot    0.045  0.012  0.234  0.036  0.102  0.052  0.036  0.156  0.034  0.706
 
band    20 # energy    6.54074267 # occ.  0.02382066
 
ion      s     py     pz     px    dxy    dyz    dz2    dxz  x2-y2    tot
    1  0.001  0.000  0.000  0.000  0.119  0.063  0.236  0.190  0.040  0.648
    2  0.000  0.001  0.011  0.002  0.000  0.000  0.000  0.000  0.000  0.014
    3  0.000  0.000  0.004  0.000  0.003  0.001  0.003  0.002  0.001  0.015
    4  0.000  0.000  0.004  0.000  0.003  0.001  0.003  0.002  0.001  0.015
tot    0.001  0.001  0.019  0.003  0.125  0.065  0.243  0.194  0.042  0.692
 
band    21 # energy    7.38860576 # occ.  0.00000000
 
ion      s     py     pz     px    dxy    dyz    dz2    dxz  x2-y2    tot
    1  0.000  0.000  0.000  0.000  0.215  0.002  0.000  0.001  0.644  0.862
    2  0.000  0.004  0.000  0.001  0.000  0.000  0.000  0.000  0.000  0.005
    3  0.000  0.002  0.000  0.001  0.000  0.002  0.000  0.001  0.001  0.005
    4  0.000  0.002  0.000  0.001  0.000  0.002  0.000  0.001  0.001  0.005
tot    0.000  0.007  0.000  0.002  0.215  0.006  0.000  0.002  0.645  0.878
 
band    22 # energy    7.45160923 # occ.  0.00000000
 
ion      s     py     pz     px    dxy    dyz    dz2    dxz  x2-y2    tot
    1  0.024  0.000  0.000  0.000  0.262  0.006  0.459  0.018  0.087  0.856
    2  0.000  0.000  0.001  0.000  0.000  0.000  0.000  0.000  0.000  0.001
    3  0.000  0.000  0.000  0.001  0.000  0.000  0.000  0.001  0.000  0.003
    4  0.000  0.000  0.000  0.001  0.000  0.000  0.000  0.001  0.000  0.003
tot    0.024  0.001  0.001  0.002  0.263  0.006  0.459  0.019  0.088  0.863
 
band    23 # energy    7.74503181 # occ.  0.00000000
 
ion      s     py     pz     px    dxy    dyz    dz2    dxz  x2-y2    tot
    1  0.000  0.000  0.000  0.000  0.004  0.553  0.000  0.184  0.012  0.754
    2  0.000  0.017  0.000  0.006  0.000  0.000  0.000  0.000  0.000  0.023
    3  0.000  0.019  0.000  0.006  0.000  0.005  0.000  0.002  0.000  0.031
    4  0.000  0.019  0.000  0.006  0.000  0.005  0.000  0.002  0.000  0.031
tot    0.000  0.054  0.000  0.018  0.004  0.562  0.000  0.187  0.013  0.839
 
band    24 # energy    8.01057553 # occ.  0.00000000
 
ion      s     py     pz     px    dxy    dyz    dz2    dxz  x2-y2    tot
    1  0.000  0.004  0.006  0.011  0.000  0.000  0.000  0.000  0.000  0.020
    2  0.215  0.000  0.000  0.000  0.000  0.002  0.005  0.005  0.000  0.227
    3  0.020  0.010  0.008  0.029  0.006  0.004  0.000  0.013  0.002  0.092
    4  0.020  0.010  0.008  0.029  0.006  0.004  0.000  0.013  0.002  0.092
tot    0.255  0.023  0.021  0.069  0.013  0.010  0.005  0.030  0.004  0.432
 
