   4   4   0   0
  0.2505737E+02  0.4150000E-09  0.4149995E-09  0.6720000E-09  0.5000000E-15
  1.000000000000000E-004
  CAR 
 unknown system                          
     11.37619774    -46.66084697  301      6.58814155      1.00000000
    -46.661  0.0000E+00  0.0000E+00  0.0000E+00  0.0000E+00
    -46.467  0.0000E+00  0.0000E+00  0.0000E+00  0.0000E+00
    -46.274  0.0000E+00  0.0000E+00  0.0000E+00  0.0000E+00
    -46.080  0.0000E+00  0.0000E+00  0.0000E+00  0.0000E+00
    -45.887  0.0000E+00  0.0000E+00  0.0000E+00  0.0000E+00
    -45.694  0.0000E+00  0.0000E+00  0.0000E+00  0.0000E+00
    -45.500  0.0000E+00  0.0000E+00  0.0000E+00  0.0000E+00
    -45.307  0.0000E+00  0.0000E+00  0.0000E+00  0.0000E+00
    -45.113  0.0000E+00  0.0000E+00  0.0000E+00  0.0000E+00
    -44.920  0.0000E+00  0.0000E+00  0.0000E+00  0.0000E+00
    -44.726  0.0000E+00  0.0000E+00  0.0000E+00  0.0000E+00
    -44.533  0.0000E+00  0.0000E+00  0.0000E+00  0.0000E+00
    -44.339  0.0000E+00  0.0000E+00  0.0000E+00  0.0000E+00
    -44.146  0.3032E-02  0.3032E-02  0.5865E-03  0.5865E-03
    -43.952  0.1507E+02  0.1507E+02  0.2915E+01  0.2915E+01
    -43.759  0.4382E+00  0.4382E+00  0.3000E+01  0.3000E+01
    -43.566  0.0000E+00  0.0000E+00  0.3000E+01  0.3000E+01
    -43.372  0.0000E+00  0.0000E+00  0.3000E+01  0.3000E+01
    -43.179  0.0000E+00  0.0000E+00  0.3000E+01  0.3000E+01
    -42.985  0.0000E+00  0.0000E+00  0.3000E+01  0.3000E+01
    -42.792  0.0000E+00  0.0000E+00  0.3000E+01  0.3000E+01
    -42.598  0.0000E+00  0.0000E+00  0.3000E+01  0.3000E+01
    -42.405  0.0000E+00  0.0000E+00  0.3000E+01  0.3000E+01
    -42.211  0.0000E+00  0.0000E+00  0.3000E+01  0.3000E+01
    -42.018  0.0000E+00  0.0000E+00  0.3000E+01  0.3000E+01
    -41.824  0.0000E+00  0.0000E+00  0.3000E+01  0.3000E+01
    -41.631  0.0000E+00  0.0000E+00  0.3000E+01  0.3000E+01
    -41.438  0.0000E+00  0.0000E+00  0.3000E+01  0.3000E+01
    -41.244  0.0000E+00  0.0000E+00  0.3000E+01  0.3000E+01
    -41.051  0.0000E+00  0.0000E+00  0.3000E+01  0.3000E+01
    -40.857  0.0000E+00  0.0000E+00  0.3000E+01  0.3000E+01
    -40.664  0.0000E+00  0.0000E+00  0.3000E+01  0.3000E+01
    -40.470  0.0000E+00  0.0000E+00  0.3000E+01  0.3000E+01
    -40.277  0.0000E+00  0.0000E+00  0.3000E+01  0.3000E+01
    -40.083  0.0000E+00  0.0000E+00  0.3000E+01  0.3000E+01
    -39.890  0.1355E-08  0.1355E-08  0.3000E+01  0.3000E+01
    -39.696  0.2758E+01  0.2758E+01  0.3534E+01  0.3534E+01
    -39.503  0.1275E+02  0.1275E+02  0.6000E+01  0.6000E+01
    -39.309  0.4435E-04  0.4435E-04  0.6000E+01  0.6000E+01
    -39.116  0.0000E+00  0.0000E+00  0.6000E+01  0.6000E+01
    -38.923  0.0000E+00  0.0000E+00  0.6000E+01  0.6000E+01
    -38.729  0.0000E+00  0.0000E+00  0.6000E+01  0.6000E+01
    -38.536  0.0000E+00  0.0000E+00  0.6000E+01  0.6000E+01
    -38.342  0.0000E+00  0.0000E+00  0.6000E+01  0.6000E+01
    -38.149  0.0000E+00  0.0000E+00  0.6000E+01  0.6000E+01
    -37.955  0.0000E+00  0.0000E+00  0.6000E+01  0.6000E+01
    -37.762  0.0000E+00  0.0000E+00  0.6000E+01  0.6000E+01
    -37.568  0.0000E+00  0.0000E+00  0.6000E+01  0.6000E+01
    -37.375  0.0000E+00  0.0000E+00  0.6000E+01  0.6000E+01
    -37.181  0.0000E+00  0.0000E+00  0.6000E+01  0.6000E+01
    -36.988  0.0000E+00  0.0000E+00  0.6000E+01  0.6000E+01
    -36.795  0.0000E+00  0.0000E+00  0.6000E+01  0.6000E+01
    -36.601  0.0000E+00  0.0000E+00  0.6000E+01  0.6000E+01
    -36.408  0.0000E+00  0.0000E+00  0.6000E+01  0.6000E+01
    -36.214  0.0000E+00  0.0000E+00  0.6000E+01  0.6000E+01
    -36.021  0.0000E+00  0.0000E+00  0.6000E+01  0.6000E+01
    -35.827  0.0000E+00  0.0000E+00  0.6000E+01  0.6000E+01
    -35.634  0.0000E+00  0.0000E+00  0.6000E+01  0.6000E+01
    -35.440  0.0000E+00  0.0000E+00  0.6000E+01  0.6000E+01
    -35.247  0.0000E+00  0.0000E+00  0.6000E+01  0.6000E+01
    -35.053  0.0000E+00  0.0000E+00  0.6000E+01  0.6000E+01
    -34.860  0.0000E+00  0.0000E+00  0.6000E+01  0.6000E+01
    -34.667  0.0000E+00  0.0000E+00  0.6000E+01  0.6000E+01
    -34.473  0.0000E+00  0.0000E+00  0.6000E+01  0.6000E+01
    -34.280  0.0000E+00  0.0000E+00  0.6000E+01  0.6000E+01
    -34.086  0.0000E+00  0.0000E+00  0.6000E+01  0.6000E+01
    -33.893  0.0000E+00  0.0000E+00  0.6000E+01  0.6000E+01
    -33.699  0.0000E+00  0.0000E+00  0.6000E+01  0.6000E+01
    -33.506  0.0000E+00  0.0000E+00  0.6000E+01  0.6000E+01
    -33.312  0.0000E+00  0.0000E+00  0.6000E+01  0.6000E+01
    -33.119  0.0000E+00  0.0000E+00  0.6000E+01  0.6000E+01
    -32.925  0.0000E+00  0.0000E+00  0.6000E+01  0.6000E+01
    -32.732  0.0000E+00  0.0000E+00  0.6000E+01  0.6000E+01
    -32.538  0.0000E+00  0.0000E+00  0.6000E+01  0.6000E+01
    -32.345  0.0000E+00  0.0000E+00  0.6000E+01  0.6000E+01
    -32.152  0.0000E+00  0.0000E+00  0.6000E+01  0.6000E+01
    -31.958  0.0000E+00  0.0000E+00  0.6000E+01  0.6000E+01
    -31.765  0.0000E+00  0.0000E+00  0.6000E+01  0.6000E+01
    -31.571  0.0000E+00  0.0000E+00  0.6000E+01  0.6000E+01
    -31.378  0.0000E+00  0.0000E+00  0.6000E+01  0.6000E+01
    -31.184  0.0000E+00  0.0000E+00  0.6000E+01  0.6000E+01
    -30.991  0.0000E+00  0.0000E+00  0.6000E+01  0.6000E+01
    -30.797  0.0000E+00  0.0000E+00  0.6000E+01  0.6000E+01
    -30.604  0.0000E+00  0.0000E+00  0.6000E+01  0.6000E+01
    -30.410  0.0000E+00  0.0000E+00  0.6000E+01  0.6000E+01
    -30.217  0.0000E+00  0.0000E+00  0.6000E+01  0.6000E+01
    -30.024  0.0000E+00  0.0000E+00  0.6000E+01  0.6000E+01
    -29.830  0.0000E+00  0.0000E+00  0.6000E+01  0.6000E+01
    -29.637  0.0000E+00  0.0000E+00  0.6000E+01  0.6000E+01
    -29.443  0.0000E+00  0.0000E+00  0.6000E+01  0.6000E+01
    -29.250  0.0000E+00  0.0000E+00  0.6000E+01  0.6000E+01
    -29.056  0.0000E+00  0.0000E+00  0.6000E+01  0.6000E+01
    -28.863  0.0000E+00  0.0000E+00  0.6000E+01  0.6000E+01
    -28.669  0.0000E+00  0.0000E+00  0.6000E+01  0.6000E+01
    -28.476  0.0000E+00  0.0000E+00  0.6000E+01  0.6000E+01
    -28.282  0.0000E+00  0.0000E+00  0.6000E+01  0.6000E+01
    -28.089  0.0000E+00  0.0000E+00  0.6000E+01  0.6000E+01
    -27.896  0.0000E+00  0.0000E+00  0.6000E+01  0.6000E+01
    -27.702  0.0000E+00  0.0000E+00  0.6000E+01  0.6000E+01
    -27.509  0.0000E+00  0.0000E+00  0.6000E+01  0.6000E+01
    -27.315  0.0000E+00  0.0000E+00  0.6000E+01  0.6000E+01
    -27.122  0.0000E+00  0.0000E+00  0.6000E+01  0.6000E+01
    -26.928  0.0000E+00  0.0000E+00  0.6000E+01  0.6000E+01
    -26.735  0.0000E+00  0.0000E+00  0.6000E+01  0.6000E+01
    -26.541  0.0000E+00  0.0000E+00  0.6000E+01  0.6000E+01
    -26.348  0.0000E+00  0.0000E+00  0.6000E+01  0.6000E+01
    -26.154  0.0000E+00  0.0000E+00  0.6000E+01  0.6000E+01
    -25.961  0.0000E+00  0.0000E+00  0.6000E+01  0.6000E+01
    -25.768  0.0000E+00  0.0000E+00  0.6000E+01  0.6000E+01
    -25.574  0.0000E+00  0.0000E+00  0.6000E+01  0.6000E+01
    -25.381  0.0000E+00  0.0000E+00  0.6000E+01  0.6000E+01
    -25.187  0.0000E+00  0.0000E+00  0.6000E+01  0.6000E+01
    -24.994  0.0000E+00  0.0000E+00  0.6000E+01  0.6000E+01
    -24.800  0.0000E+00  0.0000E+00  0.6000E+01  0.6000E+01
    -24.607  0.0000E+00  0.0000E+00  0.6000E+01  0.6000E+01
    -24.413  0.0000E+00  0.0000E+00  0.6000E+01  0.6000E+01
    -24.220  0.0000E+00  0.0000E+00  0.6000E+01  0.6000E+01
    -24.026  0.0000E+00  0.0000E+00  0.6000E+01  0.6000E+01
    -23.833  0.0000E+00  0.0000E+00  0.6000E+01  0.6000E+01
    -23.639  0.0000E+00  0.0000E+00  0.6000E+01  0.6000E+01
    -23.446  0.0000E+00  0.0000E+00  0.6000E+01  0.6000E+01
    -23.253  0.0000E+00  0.0000E+00  0.6000E+01  0.6000E+01
    -23.059  0.0000E+00  0.0000E+00  0.6000E+01  0.6000E+01
    -22.866  0.0000E+00  0.0000E+00  0.6000E+01  0.6000E+01
    -22.672  0.0000E+00  0.0000E+00  0.6000E+01  0.6000E+01
    -22.479  0.0000E+00  0.0000E+00  0.6000E+01  0.6000E+01
    -22.285  0.0000E+00  0.0000E+00  0.6000E+01  0.6000E+01
    -22.092  0.0000E+00  0.0000E+00  0.6000E+01  0.6000E+01
    -21.898  0.0000E+00  0.0000E+00  0.6000E+01  0.6000E+01
    -21.705  0.0000E+00  0.0000E+00  0.6000E+01  0.6000E+01
    -21.511  0.0000E+00  0.0000E+00  0.6000E+01  0.6000E+01
    -21.318  0.0000E+00  0.0000E+00  0.6000E+01  0.6000E+01
    -21.125  0.0000E+00  0.0000E+00  0.6000E+01  0.6000E+01
    -20.931  0.0000E+00  0.0000E+00  0.6000E+01  0.6000E+01
    -20.738  0.0000E+00  0.0000E+00  0.6000E+01  0.6000E+01
    -20.544  0.0000E+00  0.0000E+00  0.6000E+01  0.6000E+01
    -20.351  0.0000E+00  0.0000E+00  0.6000E+01  0.6000E+01
    -20.157  0.0000E+00  0.0000E+00  0.6000E+01  0.6000E+01
    -19.964  0.0000E+00  0.0000E+00  0.6000E+01  0.6000E+01
    -19.770  0.0000E+00  0.0000E+00  0.6000E+01  0.6000E+01
    -19.577  0.0000E+00  0.0000E+00  0.6000E+01  0.6000E+01
    -19.383  0.0000E+00  0.0000E+00  0.6000E+01  0.6000E+01
    -19.190  0.0000E+00  0.0000E+00  0.6000E+01  0.6000E+01
    -18.997  0.0000E+00  0.0000E+00  0.6000E+01  0.6000E+01
    -18.803  0.0000E+00  0.0000E+00  0.6000E+01  0.6000E+01
    -18.610  0.0000E+00  0.0000E+00  0.6000E+01  0.6000E+01
    -18.416  0.0000E+00  0.0000E+00  0.6000E+01  0.6000E+01
    -18.223  0.0000E+00  0.0000E+00  0.6000E+01  0.6000E+01
    -18.029  0.0000E+00  0.0000E+00  0.6000E+01  0.6000E+01
    -17.836  0.0000E+00  0.0000E+00  0.6000E+01  0.6000E+01
    -17.642  0.0000E+00  0.0000E+00  0.6000E+01  0.6000E+01
    -17.449  0.0000E+00  0.0000E+00  0.6000E+01  0.6000E+01
    -17.255  0.0000E+00  0.0000E+00  0.6000E+01  0.6000E+01
    -17.062  0.0000E+00  0.0000E+00  0.6000E+01  0.6000E+01
    -16.868  0.0000E+00  0.0000E+00  0.6000E+01  0.6000E+01
    -16.675  0.0000E+00  0.0000E+00  0.6000E+01  0.6000E+01
    -16.482  0.0000E+00  0.0000E+00  0.6000E+01  0.6000E+01
    -16.288  0.0000E+00  0.0000E+00  0.6000E+01  0.6000E+01
    -16.095  0.0000E+00  0.0000E+00  0.6000E+01  0.6000E+01
    -15.901  0.0000E+00  0.0000E+00  0.6000E+01  0.6000E+01
    -15.708  0.0000E+00  0.0000E+00  0.6000E+01  0.6000E+01
    -15.514  0.0000E+00  0.0000E+00  0.6000E+01  0.6000E+01
    -15.321  0.0000E+00  0.0000E+00  0.6000E+01  0.6000E+01
    -15.127  0.0000E+00  0.0000E+00  0.6000E+01  0.6000E+01
    -14.934  0.0000E+00  0.0000E+00  0.6000E+01  0.6000E+01
    -14.740  0.0000E+00  0.0000E+00  0.6000E+01  0.6000E+01
    -14.547  0.0000E+00  0.0000E+00  0.6000E+01  0.6000E+01
    -14.354  0.0000E+00  0.0000E+00  0.6000E+01  0.6000E+01
    -14.160  0.0000E+00  0.0000E+00  0.6000E+01  0.6000E+01
    -13.967  0.0000E+00  0.0000E+00  0.6000E+01  0.6000E+01
    -13.773  0.0000E+00  0.0000E+00  0.6000E+01  0.6000E+01
    -13.580  0.0000E+00  0.0000E+00  0.6000E+01  0.6000E+01
    -13.386  0.0000E+00  0.0000E+00  0.6000E+01  0.6000E+01
    -13.193  0.0000E+00  0.0000E+00  0.6000E+01  0.6000E+01
    -12.999  0.0000E+00  0.0000E+00  0.6000E+01  0.6000E+01
    -12.806  0.0000E+00  0.0000E+00  0.6000E+01  0.6000E+01
    -12.612  0.0000E+00  0.0000E+00  0.6000E+01  0.6000E+01
    -12.419  0.0000E+00  0.0000E+00  0.6000E+01  0.6000E+01
    -12.226  0.0000E+00  0.0000E+00  0.6000E+01  0.6000E+01
    -12.032  0.0000E+00  0.0000E+00  0.6000E+01  0.6000E+01
    -11.839  0.0000E+00  0.0000E+00  0.6000E+01  0.6000E+01
    -11.645  0.0000E+00  0.0000E+00  0.6000E+01  0.6000E+01
    -11.452  0.0000E+00  0.0000E+00  0.6000E+01  0.6000E+01
    -11.258  0.0000E+00  0.0000E+00  0.6000E+01  0.6000E+01
    -11.065  0.0000E+00  0.0000E+00  0.6000E+01  0.6000E+01
    -10.871  0.0000E+00  0.0000E+00  0.6000E+01  0.6000E+01
    -10.678  0.0000E+00  0.0000E+00  0.6000E+01  0.6000E+01
    -10.484  0.0000E+00  0.0000E+00  0.6000E+01  0.6000E+01
    -10.291  0.0000E+00  0.0000E+00  0.6000E+01  0.6000E+01
    -10.098  0.0000E+00  0.0000E+00  0.6000E+01  0.6000E+01
     -9.904  0.0000E+00  0.0000E+00  0.6000E+01  0.6000E+01
     -9.711  0.0000E+00  0.0000E+00  0.6000E+01  0.6000E+01
     -9.517  0.0000E+00  0.0000E+00  0.6000E+01  0.6000E+01
     -9.324  0.0000E+00  0.0000E+00  0.6000E+01  0.6000E+01
     -9.130  0.0000E+00  0.0000E+00  0.6000E+01  0.6000E+01
     -8.937  0.0000E+00  0.0000E+00  0.6000E+01  0.6000E+01
     -8.743  0.0000E+00  0.0000E+00  0.6000E+01  0.6000E+01
     -8.550  0.0000E+00  0.0000E+00  0.6000E+01  0.6000E+01
     -8.356  0.0000E+00  0.0000E+00  0.6000E+01  0.6000E+01
     -8.163  0.0000E+00  0.0000E+00  0.6000E+01  0.6000E+01
     -7.969  0.0000E+00  0.0000E+00  0.6000E+01  0.6000E+01
     -7.776  0.0000E+00  0.0000E+00  0.6000E+01  0.6000E+01
     -7.583  0.0000E+00  0.0000E+00  0.6000E+01  0.6000E+01
     -7.389  0.0000E+00  0.0000E+00  0.6000E+01  0.6000E+01
     -7.196  0.0000E+00  0.0000E+00  0.6000E+01  0.6000E+01
     -7.002  0.0000E+00  0.0000E+00  0.6000E+01  0.6000E+01
     -6.809  0.0000E+00  0.0000E+00  0.6000E+01  0.6000E+01
     -6.615  0.0000E+00  0.0000E+00  0.6000E+01  0.6000E+01
     -6.422  0.0000E+00  0.0000E+00  0.6000E+01  0.6000E+01
     -6.228  0.0000E+00  0.0000E+00  0.6000E+01  0.6000E+01
     -6.035  0.2196E-04  0.2196E-04  0.6000E+01  0.6000E+01
     -5.841  0.5847E+00  0.5847E+00  0.6113E+01  0.6113E+01
     -5.648  0.6037E+00  0.6037E+00  0.6230E+01  0.6230E+01
     -5.455  0.3915E+00  0.3915E+00  0.6306E+01  0.6306E+01
     -5.261  0.3295E+00  0.3295E+00  0.6369E+01  0.6369E+01
     -5.068  0.3192E+00  0.3192E+00  0.6431E+01  0.6431E+01
     -4.874  0.3301E+00  0.3301E+00  0.6495E+01  0.6495E+01
     -4.681  0.6913E+00  0.6913E+00  0.6629E+01  0.6629E+01
     -4.487  0.3502E+01  0.3502E+01  0.7306E+01  0.7306E+01
     -4.294  0.3582E+01  0.3582E+01  0.7999E+01  0.7999E+01
     -4.100  0.3631E-02  0.3631E-02  0.8000E+01  0.8000E+01
     -3.907  0.0000E+00  0.0000E+00  0.8000E+01  0.8000E+01
     -3.713  0.0000E+00  0.0000E+00  0.8000E+01  0.8000E+01
     -3.520  0.0000E+00  0.0000E+00  0.8000E+01  0.8000E+01
     -3.327  0.0000E+00  0.0000E+00  0.8000E+01  0.8000E+01
     -3.133  0.0000E+00  0.0000E+00  0.8000E+01  0.8000E+01
     -2.940  0.0000E+00  0.0000E+00  0.8000E+01  0.8000E+01
     -2.746  0.0000E+00  0.0000E+00  0.8000E+01  0.8000E+01
     -2.553  0.0000E+00  0.0000E+00  0.8000E+01  0.8000E+01
     -2.359  0.0000E+00  0.0000E+00  0.8000E+01  0.8000E+01
     -2.166  0.0000E+00  0.0000E+00  0.8000E+01  0.8000E+01
     -1.972  0.0000E+00  0.0000E+00  0.8000E+01  0.8000E+01
     -1.779  0.0000E+00  0.0000E+00  0.8000E+01  0.8000E+01
     -1.585  0.0000E+00  0.0000E+00  0.8000E+01  0.8000E+01
     -1.392  0.0000E+00  0.0000E+00  0.8000E+01  0.8000E+01
     -1.198  0.0000E+00  0.0000E+00  0.8000E+01  0.8000E+01
     -1.005  0.0000E+00  0.0000E+00  0.8000E+01  0.8000E+01
     -0.812  0.0000E+00  0.0000E+00  0.8000E+01  0.8000E+01
     -0.618  0.0000E+00  0.0000E+00  0.8000E+01  0.8000E+01
     -0.425  0.0000E+00  0.0000E+00  0.8000E+01  0.8000E+01
     -0.231  0.0000E+00  0.0000E+00  0.8000E+01  0.8000E+01
     -0.038  0.0000E+00  0.0000E+00  0.8000E+01  0.8000E+01
      0.156  0.0000E+00  0.0000E+00  0.8000E+01  0.8000E+01
      0.349  0.0000E+00  0.0000E+00  0.8000E+01  0.8000E+01
      0.543  0.7677E-07  0.7677E-07  0.8000E+01  0.8000E+01
      0.736  0.2835E+00  0.2835E+00  0.8055E+01  0.8055E+01
      0.930  0.1459E+01  0.1459E+01  0.8337E+01  0.8337E+01
      1.123  0.1827E+01  0.1827E+01  0.8691E+01  0.8691E+01
      1.316  0.5548E+00  0.5548E+00  0.8798E+01  0.8798E+01
      1.510  0.4494E+00  0.4494E+00  0.8885E+01  0.8885E+01
      1.703  0.3944E+00  0.3944E+00  0.8961E+01  0.8961E+01
      1.897  0.3173E+00  0.3173E+00  0.9022E+01  0.9022E+01
      2.090  0.3755E+00  0.3755E+00  0.9095E+01  0.9095E+01
      2.284  0.3004E+01  0.3004E+01  0.9676E+01  0.9676E+01
      2.477  0.2026E+01  0.2026E+01  0.1007E+02  0.1007E+02
      2.671  0.2113E+01  0.2113E+01  0.1048E+02  0.1048E+02
      2.864  0.6657E+01  0.6657E+01  0.1177E+02  0.1177E+02
      3.058  0.2834E+01  0.2834E+01  0.1231E+02  0.1231E+02
      3.251  0.2300E+01  0.2300E+01  0.1276E+02  0.1276E+02
      3.444  0.2809E+01  0.2809E+01  0.1330E+02  0.1330E+02
      3.638  0.4682E+01  0.4682E+01  0.1421E+02  0.1421E+02
      3.831  0.3585E+01  0.3585E+01  0.1490E+02  0.1490E+02
      4.025  0.2449E+01  0.2449E+01  0.1537E+02  0.1537E+02
      4.218  0.2980E+01  0.2980E+01  0.1595E+02  0.1595E+02
      4.412  0.8136E+00  0.8136E+00  0.1611E+02  0.1611E+02
      4.605  0.6997E+00  0.6997E+00  0.1624E+02  0.1624E+02
      4.799  0.1952E+01  0.1952E+01  0.1662E+02  0.1662E+02
      4.992  0.3021E+01  0.3021E+01  0.1721E+02  0.1721E+02
      5.186  0.1438E+01  0.1438E+01  0.1748E+02  0.1748E+02
      5.379  0.2063E+01  0.2063E+01  0.1788E+02  0.1788E+02
      5.572  0.1823E+01  0.1823E+01  0.1824E+02  0.1824E+02
      5.766  0.1595E+01  0.1595E+01  0.1854E+02  0.1854E+02
      5.959  0.6678E+00  0.6678E+00  0.1867E+02  0.1867E+02
      6.153  0.8057E+00  0.8057E+00  0.1883E+02  0.1883E+02
      6.346  0.8449E+00  0.8449E+00  0.1899E+02  0.1899E+02
      6.540  0.3516E-01  0.3516E-01  0.1900E+02  0.1900E+02
      6.733  0.6857E-06  0.6857E-06  0.1900E+02  0.1900E+02
      6.927  0.7661E+00  0.7661E+00  0.1915E+02  0.1915E+02
      7.120  0.1931E+01  0.1931E+01  0.1952E+02  0.1952E+02
      7.314  0.3102E+01  0.3102E+01  0.2012E+02  0.2012E+02
      7.507  0.2122E+01  0.2122E+01  0.2053E+02  0.2053E+02
      7.701  0.6720E+01  0.6720E+01  0.2183E+02  0.2183E+02
      7.894  0.3406E+01  0.3406E+01  0.2249E+02  0.2249E+02
      8.087  0.2380E+01  0.2380E+01  0.2295E+02  0.2295E+02
      8.281  0.1753E+01  0.1753E+01  0.2329E+02  0.2329E+02
      8.474  0.1035E+01  0.1035E+01  0.2349E+02  0.2349E+02
      8.668  0.1988E+01  0.1989E+01  0.2388E+02  0.2388E+02
      8.861  0.6425E+00  0.6425E+00  0.2400E+02  0.2400E+02
      9.055  0.6570E-04  0.6570E-04  0.2400E+02  0.2400E+02
      9.248  0.0000E+00  0.0000E+00  0.2400E+02  0.2400E+02
      9.442  0.0000E+00  0.0000E+00  0.2400E+02  0.2400E+02
      9.635  0.0000E+00  0.0000E+00  0.2400E+02  0.2400E+02
      9.829  0.0000E+00  0.0000E+00  0.2400E+02  0.2400E+02
     10.022  0.0000E+00  0.0000E+00  0.2400E+02  0.2400E+02
     10.215  0.0000E+00  0.0000E+00  0.2400E+02  0.2400E+02
     10.409  0.0000E+00  0.0000E+00  0.2400E+02  0.2400E+02
     10.602  0.0000E+00  0.0000E+00  0.2400E+02  0.2400E+02
     10.796  0.0000E+00  0.0000E+00  0.2400E+02  0.2400E+02
     10.989  0.0000E+00  0.0000E+00  0.2400E+02  0.2400E+02
     11.183  0.0000E+00  0.0000E+00  0.2400E+02  0.2400E+02
     11.376  0.0000E+00  0.0000E+00  0.2400E+02  0.2400E+02
