       N       E                     dE             d eps       ncg     rms          rms(c)
DAV:   1    -0.170817850821E+02   -0.17082E+02   -0.47339E+02  7992   0.368E+02
DAV:   2    -0.242912747360E+02   -0.72095E+01   -0.72023E+01  6768   0.580E+01
DAV:   3    -0.244278753970E+02   -0.13660E+00   -0.13659E+00  7908   0.803E+00
DAV:   4    -0.244303224260E+02   -0.24470E-02   -0.24470E-02  7044   0.929E-01
DAV:   5    -0.244304203727E+02   -0.97947E-04   -0.97946E-04  8208   0.179E-01
DAV:   6    -0.244304234925E+02   -0.31198E-05   -0.31198E-05  6636   0.220E-02
DAV:   7    -0.244304236241E+02   -0.13161E-06   -0.13161E-06  5496   0.446E-03
   1 F= -.24430424E+02 E0= -.24430424E+02  d E =-.101763E-15  mag=     0.0000
