 vasp.6.4.2 20Jul23 (build Dec 23 2024 14:39:31) complex                        
  
 executed on             LinuxIFC date 2025.03.09  21:22:24
 running    6 mpi-ranks, on    1 nodes
 distrk:  each k-point on    6 cores,    1 groups
 distr:  one band on NCORE=   1 cores,    6 groups


--------------------------------------------------------------------------------------------------------


 INCAR:
   ISTART = 1            (Read existing wavefunction, if there)
   ISPIN = 2            (Non-Spin polarised DFT)
   MAGMOM = 4.51 -4.51 0.0 0.0
   ICHARG = 11         (Non-self-consistent: GGA/LDA band structures)
   ENCUT = 500        (Cut-off energy for plane wave basis set, in eV)
   LWAVE = .F.        (Write WAVECAR or not)
   LCHARG = .F.        (Write CHGCAR or not)
   ADDGRID = .TRUE.        (Increase grid, helps GGA convergence)
   LASPH = .TRUE.        (Give more accurate total energies and band structure calculations)
   PREC = Accurate      (Accurate strictly avoids any aliasing or wrap around errors)
   ISMEAR = 0            (Gaussian smearing, metals:1)
   SIGMA = 0.05         (Smearing value in eV, metals:0.2)
   EDIFF = 1E-06        (SCF energy convergence, in eV)
   NSW = 0            (Max ionic steps)
   IBRION = 2            (Algorithm: 0-MD, 1-Quasi-New, 2-CG)
   ISIF = 2            (Stress/relaxation: 2-Ions, 3-Shape/Ions/V, 4-Shape/Ions)
   EDIFFG = -0.01         (Ionic convergence, eV/AA)

 POTCAR:    PAW_PBE Mn_pv 02Aug2007               
 POTCAR:    PAW_PBE Te 08Apr2002                  
 -----------------------------------------------------------------------------
|                                                                             |
|           W    W    AA    RRRRR   N    N  II  N    N   GGGG   !!!           |
|           W    W   A  A   R    R  NN   N  II  NN   N  G    G  !!!           |
|           W    W  A    A  R    R  N N  N  II  N N  N  G       !!!           |
|           W WW W  AAAAAA  RRRRR   N  N N  II  N  N N  G  GGG   !            |
|           WW  WW  A    A  R   R   N   NN  II  N   NN  G    G                |
|           W    W  A    A  R    R  N    N  II  N    N   GGGG   !!!           |
|                                                                             |
|     For optimal performance we recommend to set                             |
|       NCORE = 2 up to number-of-cores-per-socket                            |
|     NCORE specifies how many cores store one orbital (NPAR=cpu/NCORE).      |
|     This setting can greatly improve the performance of VASP for DFT.       |
|     The default, NCORE=1 might be grossly inefficient on modern             |
|     multi-core architectures or massively parallel machines. Do your        |
|     own testing! More info at https://www.vasp.at/wiki/index.php/NCORE      |
|     Unfortunately you need to use the default for GW and RPA                |
|     calculations (for HF NCORE is supported but not extensively tested      |
|     yet).                                                                   |
|                                                                             |
 -----------------------------------------------------------------------------

 POTCAR:    PAW_PBE Mn_pv 02Aug2007               
   VRHFIN =Mn: 3p4s3d                                                                               
   LEXCH  = PE                                                                                      
   EATOM  =  2025.2664 eV,  148.8529 Ry                                                             
                                                                                                    
   TITEL  = PAW_PBE Mn_pv 02Aug2007                                                                 
   LULTRA =        F    use ultrasoft PP ?                                                          
   IUNSCR =        1    unscreen: 0-lin 1-nonlin 2-no                                               
   RPACOR =    2.080    partial core radius                                                         
   POMASS =   54.938; ZVAL   =   13.000    mass and valenz                                          
   RCORE  =    2.300    outmost cutoff radius                                                       
   RWIGS  =    2.500; RWIGS  =    1.323    wigner-seitz radius (au A)                               
   ENMAX  =  269.864; ENMIN  =  202.398 eV                                                          
   ICORE  =        3    local potential                                                             
   LCOR   =        T    correct aug charges                                                         
   LPAW   =        T    paw PP                                                                      
   EAUG   =  569.085                                                                                
   DEXC   =    0.000                                                                                
   RMAX   =    2.343    core radius for proj-oper                                                   
   RAUG   =    1.300    factor for augmentation sphere                                              
   RDEP   =    2.338    radius for radial grids                                                     
   RDEPT  =    1.798    core radius for aug-charge                                                  
                                                                                                    
   Atomic configuration                                                                             
    8 entries                                                                                       
     n  l   j            E        occ.                                                              
     1  0  0.50     -6424.8287   2.0000                                                             
     2  0  0.50      -739.1154   2.0000                                                             
     2  1  1.50      -625.3949   6.0000                                                             
     3  0  0.50       -81.6100   2.0000                                                             
     3  1  1.50       -50.4667   6.0000                                                             
     3  2  2.50        -3.3745   6.0000                                                             
     4  0  0.50        -4.1331   1.0000                                                             
     4  3  2.50        -1.3606   0.0000                                                             
   Description                                                                                      
     l       E           TYP  RCUT    TYP  RCUT                                                     
     1    -50.4666628     23  2.000                                                                 
     1     -1.3605826     23  2.000                                                                 
     2     -3.3744729     23  2.300                                                                 
     2     -4.7350555     23  2.300                                                                 
     0     -4.1331431     23  2.300                                                                 
     0      7.6656591     23  2.300                                                                 
     3      9.5240782     23  2.300                                                                 
  local pseudopotential read in
  partial core-charges read in
  partial kinetic energy density read in
  atomic valenz-charges read in
  non local Contribution for L=           1  read in
    real space projection operators read in
  non local Contribution for L=           1  read in
    real space projection operators read in
  non local Contribution for L=           2  read in
    real space projection operators read in
  non local Contribution for L=           2  read in
    real space projection operators read in
  non local Contribution for L=           0  read in
    real space projection operators read in
  non local Contribution for L=           0  read in
    real space projection operators read in
    PAW grid and wavefunctions read in
 
   number of l-projection  operators is LMAX  =           6
   number of lm-projection operators is LMMAX =          18
 
 POTCAR:    PAW_PBE Te 08Apr2002                  
   VRHFIN =Te: s2p4                                                                                 
   LEXCH  = PE                                                                                      
   EATOM  =   223.2721 eV,   16.4100 Ry                                                             
                                                                                                    
   TITEL  = PAW_PBE Te 08Apr2002                                                                    
   LULTRA =        F    use ultrasoft PP ?                                                          
   IUNSCR =        1    unscreen: 0-lin 1-nonlin 2-no                                               
   RPACOR =    2.200    partial core radius                                                         
   POMASS =  127.600; ZVAL   =    6.000    mass and valenz                                          
   RCORE  =    2.300    outmost cutoff radius                                                       
   RWIGS  =    2.900; RWIGS  =    1.535    wigner-seitz radius (au A)                               
   ENMAX  =  174.982; ENMIN  =  131.236 eV                                                          
   ICORE  =        3    local potential                                                             
   LCOR   =        T    correct aug charges                                                         
   LPAW   =        T    paw PP                                                                      
   EAUG   =  368.792                                                                                
   DEXC   =    0.000                                                                                
   RMAX   =    2.345    core radius for proj-oper                                                   
   RAUG   =    1.300    factor for augmentation sphere                                              
   RDEP   =    2.397    radius for radial grids                                                     
   RDEPT  =    2.174    core radius for aug-charge                                                  
                                                                                                    
   Atomic configuration                                                                             
   13 entries                                                                                       
     n  l   j            E        occ.                                                              
     1  0  0.50    -31621.2075   2.0000                                                             
     2  0  0.50     -4848.7941   2.0000                                                             
     2  1  1.50     -4352.1960   6.0000                                                             
     3  0  0.50      -964.9612   2.0000                                                             
     3  1  1.50      -803.6179   6.0000                                                             
     3  2  2.50      -559.8710  10.0000                                                             
     4  0  0.50      -164.3522   2.0000                                                             
     4  1  1.50      -114.3756   6.0000                                                             
     4  2  2.50       -41.6483  10.0000                                                             
     5  0  0.50       -15.1072   2.0000                                                             
     5  1  0.50        -5.9526   4.0000                                                             
     5  2  1.50        -5.4423   0.0000                                                             
     4  3  2.50        -5.4423   0.0000                                                             
   Description                                                                                      
     l       E           TYP  RCUT    TYP  RCUT                                                     
     0    -15.1072389     23  2.300                                                                 
     0    -16.4678215     23  2.300                                                                 
     1     -5.9526306     23  2.300                                                                 
     1     -2.4873968     23  2.300                                                                 
     2     -5.4423304     23  2.300                                                                 
     3     -1.3605826     23  2.300                                                                 
  local pseudopotential read in
  partial core-charges read in
  partial kinetic energy density read in
  atomic valenz-charges read in
  non local Contribution for L=           0  read in
    real space projection operators read in
  non local Contribution for L=           0  read in
    real space projection operators read in
  non local Contribution for L=           1  read in
    real space projection operators read in
  non local Contribution for L=           1  read in
    real space projection operators read in
  non local Contribution for L=           2  read in
    real space projection operators read in
    PAW grid and wavefunctions read in
 
   number of l-projection  operators is LMAX  =           5
   number of lm-projection operators is LMMAX =          13
 
  PAW_PBE Mn_pv 02Aug2007               :
 energy of atom  1       EATOM=-2025.2664
 kinetic energy error for atom=    0.0062 (will be added to EATOM!!)
  PAW_PBE Te 08Apr2002                  :
 energy of atom  2       EATOM= -223.2721
 kinetic energy error for atom=    0.0007 (will be added to EATOM!!)
 
 
 POSCAR: Mn2 Te2
  positions in direct lattice
  velocities in cartesian coordinates
 exchange correlation table for  LEXCH =        8
   RHO(1)=    0.500       N(1)  =     2000
   RHO(2)=  100.500       N(2)  =     4000
 


--------------------------------------------------------------------------------------------------------


 ion  position               nearest neighbor table
   1  0.000  0.000  0.000-   3 2.93   4 2.93   4 2.93   3 2.93   4 2.93   3 2.93
   2  0.000  0.000  0.500-   3 2.93   4 2.93   4 2.93   3 2.93   4 2.93   3 2.93
   3  0.333  0.667  0.250-   1 2.93   2 2.93   1 2.93   2 2.93   1 2.93   2 2.93
   4  0.667  0.333  0.750-   1 2.93   2 2.93   1 2.93   2 2.93   1 2.93   2 2.93
 
  LATTYP: Found a hexagonal cell.
 ALAT       =     4.1500000000
 C/A-ratio  =     1.6192771084
  
  Lattice vectors:
  
 A1 = (   4.1500000000,   0.0000000000,   0.0000000000)
 A2 = (  -2.0750000000,   3.5940000000,   0.0000000000)
 A3 = (   0.0000000000,   0.0000000000,   6.7200000000)


Analysis of symmetry for initial positions (statically):
=====================================================================
 Subroutine PRICEL returns:
 Original cell was already a primitive cell.
 

 Routine SETGRP: Setting up the symmetry group for a 
 hexagonal supercell.


 Subroutine GETGRP returns: Found 24 space group operations
 (whereof 12 operations were pure point group operations)
 out of a pool of 24 trial point group operations.


The static configuration has the point symmetry D_3d.
 The point group associated with its full space group is D_6h.


Analysis of symmetry for dynamics (positions and initial velocities):
=====================================================================
 Subroutine PRICEL returns:
 Original cell was already a primitive cell.
 

 Routine SETGRP: Setting up the symmetry group for a 
 hexagonal supercell.


 Subroutine GETGRP returns: Found 24 space group operations
 (whereof 12 operations were pure point group operations)
 out of a pool of 24 trial point group operations.


The dynamic configuration has the point symmetry D_3d.
 The point group associated with its full space group is D_6h.


Analysis of structural, dynamic, and magnetic symmetry:
=====================================================================
 Subroutine PRICEL returns:
 Original cell was already a primitive cell.
 

 Routine SETGRP: Setting up the symmetry group for a 
 hexagonal supercell.


 Subroutine GETGRP returns: Found 24 space group operations
 (whereof 12 operations were pure point group operations)
 out of a pool of 24 trial point group operations.


The overall configuration has the point symmetry D_3d.
 The point group associated with its full space group is D_6h.


 Subroutine INISYM returns: Found 24 space group operations
 (whereof 12 operations are pure point group operations),
 and found     1 'primitive' translations


----------------------------------------------------------------------------------------

                                     Primitive cell                                     

  volume of cell :     100.2295

  direct lattice vectors                    reciprocal lattice vectors
     4.150000000  0.000000000  0.000000000     0.240963855  0.139120757  0.000000000
    -2.075000000  3.594000000  0.000000000     0.000000000  0.278241514  0.000000000
     0.000000000  0.000000000  6.720000000     0.000000000  0.000000000  0.148809524

  length of vectors
     4.150000000  4.149995301  6.720000000     0.278241199  0.278241514  0.148809524

  position of ions in fractional coordinates (direct lattice)
     0.000000000  0.000000000  0.000000000
     0.000000000  0.000000000  0.500000000
     0.333333343  0.666666687  0.250000000
     0.666666657  0.333333313  0.750000000

  ion indices of the primitive-cell ions
   primitive index   ion index
                 1           1
                 2           2
                 3           3
                 4           4

----------------------------------------------------------------------------------------

 
 
 KPOINTS: K-Path Generated by VASPKIT.            

Interpolating k-points between supplied coordinates.

 Line segments in fractional coordinates (reciprocal lattice):
    0.000000  0.000000  0.000000  ...  0.500000  0.000000  0.000000
    0.500000  0.000000  0.000000  ...  0.333333  0.333333  0.000000
    0.333333  0.333333  0.000000  ...  0.000000  0.000000  0.000000

 Generated    20 points on each line segment, for a total of     60 k-points:

 Following reciprocal coordinates:
            Coordinates               Weight
  0.000000  0.000000  0.000000      0.016667
  0.026316  0.000000  0.000000      0.016667
  0.052632  0.000000  0.000000      0.016667
  0.078947  0.000000  0.000000      0.016667
  0.105263  0.000000  0.000000      0.016667
  0.131579  0.000000  0.000000      0.016667
  0.157895  0.000000  0.000000      0.016667
  0.184211  0.000000  0.000000      0.016667
  0.210526  0.000000  0.000000      0.016667
  0.236842  0.000000  0.000000      0.016667
  0.263158  0.000000  0.000000      0.016667
  0.289474  0.000000  0.000000      0.016667
  0.315789  0.000000  0.000000      0.016667
  0.342105  0.000000  0.000000      0.016667
  0.368421  0.000000  0.000000      0.016667
  0.394737  0.000000  0.000000      0.016667
  0.421053  0.000000  0.000000      0.016667
  0.447368  0.000000  0.000000      0.016667
  0.473684  0.000000  0.000000      0.016667
  0.500000  0.000000  0.000000      0.016667
  0.500000  0.000000  0.000000      0.016667
  0.491228  0.017544  0.000000      0.016667
  0.482456  0.035088  0.000000      0.016667
  0.473684  0.052632  0.000000      0.016667
  0.464912  0.070175  0.000000      0.016667
  0.456140  0.087719  0.000000      0.016667
  0.447368  0.105263  0.000000      0.016667
  0.438596  0.122807  0.000000      0.016667
  0.429825  0.140351  0.000000      0.016667
  0.421053  0.157895  0.000000      0.016667
  0.412281  0.175439  0.000000      0.016667
  0.403509  0.192982  0.000000      0.016667
  0.394737  0.210526  0.000000      0.016667
  0.385965  0.228070  0.000000      0.016667
  0.377193  0.245614  0.000000      0.016667
  0.368421  0.263158  0.000000      0.016667
  0.359649  0.280702  0.000000      0.016667
  0.350877  0.298246  0.000000      0.016667
  0.342105  0.315789  0.000000      0.016667
  0.333333  0.333333  0.000000      0.016667
  0.333333  0.333333  0.000000      0.016667
  0.315789  0.315789  0.000000      0.016667
  0.298246  0.298246  0.000000      0.016667
  0.280702  0.280702  0.000000      0.016667
  0.263158  0.263158  0.000000      0.016667
  0.245614  0.245614  0.000000      0.016667
  0.228070  0.228070  0.000000      0.016667
  0.210526  0.210526  0.000000      0.016667
  0.192982  0.192982  0.000000      0.016667
  0.175439  0.175439  0.000000      0.016667
  0.157895  0.157895  0.000000      0.016667
  0.140351  0.140351  0.000000      0.016667
  0.122807  0.122807  0.000000      0.016667
  0.105263  0.105263  0.000000      0.016667
  0.087719  0.087719  0.000000      0.016667
  0.070175  0.070175  0.000000      0.016667
  0.052632  0.052632  0.000000      0.016667
  0.035088  0.035088  0.000000      0.016667
  0.017544  0.017544  0.000000      0.016667
 -0.000000 -0.000000  0.000000      0.016667

 Following cartesian coordinates:
            Coordinates               Weight
  0.000000  0.000000  0.000000      0.016667
  0.006341  0.003661  0.000000      0.016667
  0.012682  0.007322  0.000000      0.016667
  0.019023  0.010983  0.000000      0.016667
  0.025365  0.014644  0.000000      0.016667
  0.031706  0.018305  0.000000      0.016667
  0.038047  0.021966  0.000000      0.016667
  0.044388  0.025628  0.000000      0.016667
  0.050729  0.029289  0.000000      0.016667
  0.057070  0.032950  0.000000      0.016667
  0.063412  0.036611  0.000000      0.016667
  0.069753  0.040272  0.000000      0.016667
  0.076094  0.043933  0.000000      0.016667
  0.082435  0.047594  0.000000      0.016667
  0.088776  0.051255  0.000000      0.016667
  0.095117  0.054916  0.000000      0.016667
  0.101458  0.058577  0.000000      0.016667
  0.107800  0.062238  0.000000      0.016667
  0.114141  0.065899  0.000000      0.016667
  0.120482  0.069560  0.000000      0.016667
  0.120482  0.069560  0.000000      0.016667
  0.118368  0.073221  0.000000      0.016667
  0.116254  0.076883  0.000000      0.016667
  0.114141  0.080544  0.000000      0.016667
  0.112027  0.084205  0.000000      0.016667
  0.109913  0.087866  0.000000      0.016667
  0.107800  0.091527  0.000000      0.016667
  0.105686  0.095188  0.000000      0.016667
  0.103572  0.098849  0.000000      0.016667
  0.101458  0.102510  0.000000      0.016667
  0.099345  0.106171  0.000000      0.016667
  0.097231  0.109832  0.000000      0.016667
  0.095117  0.113493  0.000000      0.016667
  0.093004  0.117154  0.000000      0.016667
  0.090890  0.120815  0.000000      0.016667
  0.088776  0.124476  0.000000      0.016667
  0.086662  0.128138  0.000000      0.016667
  0.084549  0.131799  0.000000      0.016667
  0.082435  0.135460  0.000000      0.016667
  0.080321  0.139121  0.000000      0.016667
  0.080321  0.139121  0.000000      0.016667
  0.076094  0.131799  0.000000      0.016667
  0.071866  0.124476  0.000000      0.016667
  0.067639  0.117154  0.000000      0.016667
  0.063412  0.109832  0.000000      0.016667
  0.059184  0.102510  0.000000      0.016667
  0.054957  0.095188  0.000000      0.016667
  0.050729  0.087866  0.000000      0.016667
  0.046502  0.080544  0.000000      0.016667
  0.042274  0.073221  0.000000      0.016667
  0.038047  0.065899  0.000000      0.016667
  0.033819  0.058577  0.000000      0.016667
  0.029592  0.051255  0.000000      0.016667
  0.025365  0.043933  0.000000      0.016667
  0.021137  0.036611  0.000000      0.016667
  0.016910  0.029289  0.000000      0.016667
  0.012682  0.021966  0.000000      0.016667
  0.008455  0.014644  0.000000      0.016667
  0.004227  0.007322  0.000000      0.016667
 -0.000000 -0.000000  0.000000      0.016667
 


--------------------------------------------------------------------------------------------------------




 Dimension of arrays:
   k-points           NKPTS =     60   k-points in BZ     NKDIM =     60   number of bands    NBANDS=     24
   number of dos      NEDOS =    301   number of ions     NIONS =      4
   non local maximal  LDIM  =      6   non local SUM 2l+1 LMDIM =     18
   total plane-waves  NPLWV =  45000
   max r-space proj   IRMAX =      1   max aug-charges    IRDMAX= 209082
   dimension x,y,z NGX =    30 NGY =   30 NGZ =   50
   dimension x,y,z NGXF=    60 NGYF=   60 NGZF=  100
   support grid    NGXF=   120 NGYF=  120 NGZF=  200
   ions per type =               2   2
   NGX,Y,Z   is equivalent  to a cutoff of  12.02, 12.02, 12.37 a.u.
   NGXF,Y,Z  is equivalent  to a cutoff of  24.04, 24.04, 24.74 a.u.

 SYSTEM =  unknown system                          
 POSCAR =  Mn2 Te2                                 

 Startparameter for this run:
   NWRITE =      2    write-flag & timer
   PREC   = accura    normal or accurate (medium, high low for compatibility)
   ISTART =      1    job   : 0-new  1-cont  2-samecut
   ICHARG =     11    charge: 1-file 2-atom 10-const
   ISPIN  =      2    spin polarized calculation?
   LNONCOLLINEAR =      F non collinear calculations
   LSORBIT =      F    spin-orbit coupling
   INIWAV =      1    electr: 0-lowe 1-rand  2-diag
   LASPH  =      T    aspherical Exc in radial PAW
 Electronic Relaxation 1
   ENCUT  =  500.0 eV  36.75 Ry    6.06 a.u.   7.57  7.57 12.25*2*pi/ulx,y,z
   ENINI  =  500.0     initial cutoff
   ENAUG  =  569.1 eV  augmentation charge cutoff
   NELM   =     60;   NELMIN=  2; NELMDL=  0     # of ELM steps 
   EDIFF  = 0.1E-05   stopping-criterion for ELM
   LREAL  =      F    real-space projection
   NLSPLINE    = F    spline interpolate recip. space projectors
   LCOMPAT=      F    compatible to vasp.4.4
   GGA_COMPAT  = T    GGA compatible to vasp.4.4-vasp.4.6
   LMAXPAW     = -100 max onsite density
   LMAXMIX     =    2 max onsite mixed and CHGCAR
   VOSKOWN=      0    Vosko Wilk Nusair interpolation
   ROPT   =    0.00000   0.00000
 Ionic relaxation
   EDIFFG = -.1E-01   stopping-criterion for IOM
   NSW    =      0    number of steps for IOM
   NBLOCK =      1;   KBLOCK =      1    inner block; outer block 
   IBRION =     -1    ionic relax: 0-MD 1-quasi-New 2-CG
   NFREE  =      1    steps in history (QN), initial steepest desc. (CG)
   ISIF   =      2    stress and relaxation
   IWAVPR =     10    prediction:  0-non 1-charg 2-wave 3-comb
   ISYM   =      2    0-nonsym 1-usesym 2-fastsym
   LCORR  =      T    Harris-Foulkes like correction to forces

   POTIM  = 0.5000    time-step for ionic-motion
   TEIN   =    0.0    initial temperature
   TEBEG  =    0.0;   TEEND  =   0.0 temperature during run
   SMASS  =  -3.00    Nose mass-parameter (am)
   estimated Nose-frequenzy (Omega)   =  0.10E-29 period in steps = 0.13E+47 mass=  -0.394E-27a.u.
   SCALEE = 1.0000    scale energy and forces
   NPACO  =    256;   APACO  = 10.0  distance and # of slots for P.C.
   PSTRESS=    0.0 pullay stress

  Mass of Ions in am
   POMASS =  54.94127.60
  Ionic Valenz
   ZVAL   =  13.00  6.00
  Atomic Wigner-Seitz radii
   RWIGS  =  -1.00 -1.00
  virtual crystal weights 
   VCA    =   1.00  1.00
   NELECT =      38.0000    total number of electrons
   NUPDOWN=      -1.0000    fix difference up-down

 DOS related values:
   EMIN   =  10.00;   EMAX   =-10.00  energy-range for DOS
   EFERMI =   0.00;   METHOD = LEGACY      
   ISMEAR =     0;   SIGMA  =   0.05  broadening in eV -4-tet -1-fermi 0-gaus

 Electronic relaxation 2 (details)
   IALGO  =     38    algorithm
   LDIAG  =      T    sub-space diagonalisation (order eigenvalues)
   LSUBROT=      F    optimize rotation matrix (better conditioning)
   TURBO    =      0    0=normal 1=particle mesh
   IRESTART =      0    0=no restart 2=restart with 2 vectors
   NREBOOT  =      0    no. of reboots
   NMIN     =      0    reboot dimension
   EREF     =   0.00    reference energy to select bands
   IMIX   =      4    mixing-type and parameters
     AMIX     =   0.40;   BMIX     =  1.00
     AMIX_MAG =   1.60;   BMIX_MAG =  1.00
     AMIN     =   0.10
     WC   =   100.;   INIMIX=   1;  MIXPRE=   1;  MAXMIX= -45

 Intra band minimization:
   WEIMIN = 0.0000     energy-eigenvalue tresh-hold
   EBREAK =  0.10E-07  absolut break condition
   DEPER  =   0.30     relativ break condition  

   TIME   =   0.40     timestep for ELM

  volume/ion in A,a.u.               =      25.06       169.10
  Fermi-wavevector in a.u.,A,eV,Ry     =   1.184870  2.239081 19.101465  1.403918
  Thomas-Fermi vector in A             =   2.321076
 
 Write flags
   LWAVE        =      F    write WAVECAR
   LDOWNSAMPLE  =      F    k-point downsampling of WAVECAR
   LCHARG       =      F    write CHGCAR
   LVTOT        =      F    write LOCPOT, total local potential
   LVHAR        =      F    write LOCPOT, Hartree potential only
   LELF         =      F    write electronic localiz. function (ELF)
   LORBIT       =      0    0 simple, 1 ext, 2 COOP (PROOUT), +10 PAW based schemes


 Dipole corrections
   LMONO  =      F    monopole corrections only (constant potential shift)
   LDIPOL =      F    correct potential (dipole corrections)
   IDIPOL =      0    1-x, 2-y, 3-z, 4-all directions 
   EPSILON=  1.0000000 bulk dielectric constant

 Exchange correlation treatment:
   GGA     =    --    GGA type
   LEXCH   =     8    internal setting for exchange type
   LIBXC   =     F    Libxc                    
   VOSKOWN =     0    Vosko Wilk Nusair interpolation
   LHFCALC =     F    Hartree Fock is set to
   LHFONE  =     F    Hartree Fock one center treatment
   AEXX    =    0.0000 exact exchange contribution

 Linear response parameters
   LEPSILON=     F    determine dielectric tensor
   LRPA    =     F    only Hartree local field effects (RPA)
   LNABLA  =     F    use nabla operator in PAW spheres
   LVEL    =     F    velocity operator in full k-point grid
   CSHIFT  =0.1000    complex shift for real part using Kramers Kronig
   OMEGAMAX=  -1.0    maximum frequency
   DEG_THRESHOLD= 0.2000000E-02 threshold for treating states as degnerate
   RTIME   =   -0.100 relaxation time in fs
  (WPLASMAI=    0.000 imaginary part of plasma frequency in eV, 0.658/RTIME)
   DFIELD  = 0.0000000 0.0000000 0.0000000 field for delta impulse in time
 
  Optional k-point grid parameters
   LKPOINTS_OPT  =     F    use optional k-point grid
   KPOINTS_OPT_MODE=     1    mode for optional k-point grid
 
 Orbital magnetization related:
   ORBITALMAG=     F  switch on orbital magnetization
   LCHIMAG   =     F  perturbation theory with respect to B field
   DQ        =  0.001000  dq finite difference perturbation B field
   LLRAUG    =     F  two centre corrections for induced B field
   LBONE     =     F  B-component reconstruction in AE one-centre
   LVGVCALC  =     T  calculate vGv susceptibility
   LVGVAPPL  =     F  apply vGv susceptibility instead of pGv for G=0

 Random number generation:
   RANDOM_GENERATOR = DEFAULT
   PCG_SEED         = not used


--------------------------------------------------------------------------------------------------------


 Static calculation
 charge density and potential remain constant during run
 spin polarized calculation
 Variant of blocked Davidson
 Davidson routine will perform the subspace rotation
 perform sub-space diagonalisation
    after iterative eigenvector-optimisation
 no mixing
 using additional bands            5
 reciprocal scheme for non local part
 use partial core corrections
 calculate Harris-corrections to forces 
   (improved forces if not selfconsistent)
 use gradient corrections 
 WARNING: stress and forces are not correct
  (second derivative of E(xc) not defined)
 use of overlap-Matrix (Vanderbilt PP)
 Gauss-broadening in eV      SIGMA  =   0.05


--------------------------------------------------------------------------------------------------------


  energy-cutoff  :      500.00
  volume of cell :      100.23
      direct lattice vectors                 reciprocal lattice vectors
     4.150000000  0.000000000  0.000000000     0.240963855  0.139120757  0.000000000
    -2.075000000  3.594000000  0.000000000     0.000000000  0.278241514  0.000000000
     0.000000000  0.000000000  6.720000000     0.000000000  0.000000000  0.148809524

  length of vectors
     4.150000000  4.149995301  6.720000000     0.278241199  0.278241514  0.148809524


 
 old parameters found on file WAVECAR:
  energy-cutoff  :      500.00
  volume of cell :      100.23
      direct lattice vectors                 reciprocal lattice vectors
     4.150000000  0.000000000  0.000000000     0.240963855  0.139120757  0.000000000
    -2.075000000  3.594000000  0.000000000     0.000000000  0.278241514  0.000000000
     0.000000000  0.000000000  6.720000000     0.000000000  0.000000000  0.148809524

  length of vectors

 
 k-points in units of 2pi/SCALE and weight: K-Path Generated by VASPKIT.            
   0.00000000  0.00000000  0.00000000       0.017
   0.00634115  0.00366107  0.00000000       0.017
   0.01268231  0.00732215  0.00000000       0.017
   0.01902346  0.01098322  0.00000000       0.017
   0.02536462  0.01464429  0.00000000       0.017
   0.03170577  0.01830536  0.00000000       0.017
   0.03804692  0.02196644  0.00000000       0.017
   0.04438808  0.02562751  0.00000000       0.017
   0.05072923  0.02928858  0.00000000       0.017
   0.05707039  0.03294965  0.00000000       0.017
   0.06341154  0.03661073  0.00000000       0.017
   0.06975269  0.04027180  0.00000000       0.017
   0.07609385  0.04393287  0.00000000       0.017
   0.08243500  0.04759394  0.00000000       0.017
   0.08877616  0.05125502  0.00000000       0.017
   0.09511731  0.05491609  0.00000000       0.017
   0.10145847  0.05857716  0.00000000       0.017
   0.10779962  0.06223823  0.00000000       0.017
   0.11414077  0.06589931  0.00000000       0.017
   0.12048193  0.06956038  0.00000000       0.017
   0.12048193  0.06956038  0.00000000       0.017
   0.11836821  0.07322145  0.00000000       0.017
   0.11625449  0.07688252  0.00000000       0.017
   0.11414077  0.08054360  0.00000000       0.017
   0.11202706  0.08420467  0.00000000       0.017
   0.10991334  0.08786574  0.00000000       0.017
   0.10779962  0.09152681  0.00000000       0.017
   0.10568590  0.09518789  0.00000000       0.017
   0.10357218  0.09884896  0.00000000       0.017
   0.10145847  0.10251003  0.00000000       0.017
   0.09934475  0.10617110  0.00000000       0.017
   0.09723103  0.10983218  0.00000000       0.017
   0.09511731  0.11349325  0.00000000       0.017
   0.09300359  0.11715432  0.00000000       0.017
   0.09088988  0.12081539  0.00000000       0.017
   0.08877616  0.12447647  0.00000000       0.017
   0.08666244  0.12813754  0.00000000       0.017
   0.08454872  0.13179861  0.00000000       0.017
   0.08243500  0.13545968  0.00000000       0.017
   0.08032129  0.13912076  0.00000000       0.017
   0.08032129  0.13912076  0.00000000       0.017
   0.07609385  0.13179861  0.00000000       0.017
   0.07186641  0.12447647  0.00000000       0.017
   0.06763898  0.11715432  0.00000000       0.017
   0.06341154  0.10983218  0.00000000       0.017
   0.05918410  0.10251003  0.00000000       0.017
   0.05495667  0.09518789  0.00000000       0.017
   0.05072923  0.08786574  0.00000000       0.017
   0.04650180  0.08054360  0.00000000       0.017
   0.04227436  0.07322145  0.00000000       0.017
   0.03804692  0.06589931  0.00000000       0.017
   0.03381949  0.05857716  0.00000000       0.017
   0.02959205  0.05125502  0.00000000       0.017
   0.02536462  0.04393287  0.00000000       0.017
   0.02113718  0.03661073  0.00000000       0.017
   0.01690974  0.02928858  0.00000000       0.017
   0.01268231  0.02196644  0.00000000       0.017
   0.00845487  0.01464429  0.00000000       0.017
   0.00422744  0.00732215  0.00000000       0.017
  -0.00000000 -0.00000000  0.00000000       0.017
 
 k-points in reciprocal lattice and weights: K-Path Generated by VASPKIT.            
   0.00000000  0.00000000  0.00000000       0.017
   0.02631579  0.00000000  0.00000000       0.017
   0.05263158  0.00000000  0.00000000       0.017
   0.07894737  0.00000000  0.00000000       0.017
   0.10526316  0.00000000  0.00000000       0.017
   0.13157895  0.00000000  0.00000000       0.017
   0.15789474  0.00000000  0.00000000       0.017
   0.18421053  0.00000000  0.00000000       0.017
   0.21052632  0.00000000  0.00000000       0.017
   0.23684211  0.00000000  0.00000000       0.017
   0.26315789  0.00000000  0.00000000       0.017
   0.28947368  0.00000000  0.00000000       0.017
   0.31578947  0.00000000  0.00000000       0.017
   0.34210526  0.00000000  0.00000000       0.017
   0.36842105  0.00000000  0.00000000       0.017
   0.39473684  0.00000000  0.00000000       0.017
   0.42105263  0.00000000  0.00000000       0.017
   0.44736842  0.00000000  0.00000000       0.017
   0.47368421  0.00000000  0.00000000       0.017
   0.50000000  0.00000000  0.00000000       0.017
   0.50000000  0.00000000  0.00000000       0.017
   0.49122807  0.01754386  0.00000000       0.017
   0.48245614  0.03508772  0.00000000       0.017
   0.47368421  0.05263158  0.00000000       0.017
   0.46491228  0.07017544  0.00000000       0.017
   0.45614035  0.08771930  0.00000000       0.017
   0.44736842  0.10526316  0.00000000       0.017
   0.43859649  0.12280702  0.00000000       0.017
   0.42982456  0.14035088  0.00000000       0.017
   0.42105263  0.15789474  0.00000000       0.017
   0.41228070  0.17543860  0.00000000       0.017
   0.40350877  0.19298246  0.00000000       0.017
   0.39473684  0.21052632  0.00000000       0.017
   0.38596491  0.22807018  0.00000000       0.017
   0.37719298  0.24561404  0.00000000       0.017
   0.36842105  0.26315789  0.00000000       0.017
   0.35964912  0.28070175  0.00000000       0.017
   0.35087719  0.29824561  0.00000000       0.017
   0.34210526  0.31578947  0.00000000       0.017
   0.33333333  0.33333333  0.00000000       0.017
   0.33333333  0.33333333  0.00000000       0.017
   0.31578947  0.31578947  0.00000000       0.017
   0.29824561  0.29824561  0.00000000       0.017
   0.28070175  0.28070175  0.00000000       0.017
   0.26315789  0.26315789  0.00000000       0.017
   0.24561404  0.24561404  0.00000000       0.017
   0.22807018  0.22807018  0.00000000       0.017
   0.21052632  0.21052632  0.00000000       0.017
   0.19298246  0.19298246  0.00000000       0.017
   0.17543860  0.17543860  0.00000000       0.017
   0.15789474  0.15789474  0.00000000       0.017
   0.14035088  0.14035088  0.00000000       0.017
   0.12280702  0.12280702  0.00000000       0.017
   0.10526316  0.10526316  0.00000000       0.017
   0.08771930  0.08771930  0.00000000       0.017
   0.07017544  0.07017544  0.00000000       0.017
   0.05263158  0.05263158  0.00000000       0.017
   0.03508772  0.03508772  0.00000000       0.017
   0.01754386  0.01754386  0.00000000       0.017
  -0.00000000 -0.00000000  0.00000000       0.017
 
 position of ions in fractional coordinates (direct lattice) 
   0.00000000  0.00000000  0.00000000
   0.00000000  0.00000000  0.50000000
   0.33333334  0.66666669  0.25000000
   0.66666666  0.33333331  0.75000000
 
 position of ions in cartesian coordinates  (Angst):
   0.00000000  0.00000000  0.00000000
   0.00000000  0.00000000  3.36000000
  -0.00000000  2.39600007  1.68000000
   2.07500000  1.19799993  5.04000000
 


--------------------------------------------------------------------------------------------------------


 k-point   1 :   0.0000 0.0000 0.0000  plane waves:    2539
 k-point   2 :   0.0263 0.0000 0.0000  plane waves:    2547
 k-point   3 :   0.0526 0.0000 0.0000  plane waves:    2561
 k-point   4 :   0.0789 0.0000 0.0000  plane waves:    2577
 k-point   5 :   0.1053 0.0000 0.0000  plane waves:    2573
 k-point   6 :   0.1316 0.0000 0.0000  plane waves:    2567
 k-point   7 :   0.1579 0.0000 0.0000  plane waves:    2563
 k-point   8 :   0.1842 0.0000 0.0000  plane waves:    2563
 k-point   9 :   0.2105 0.0000 0.0000  plane waves:    2561
 k-point  10 :   0.2368 0.0000 0.0000  plane waves:    2563
 k-point  11 :   0.2632 0.0000 0.0000  plane waves:    2563
 k-point  12 :   0.2895 0.0000 0.0000  plane waves:    2573
 k-point  13 :   0.3158 0.0000 0.0000  plane waves:    2561
 k-point  14 :   0.3421 0.0000 0.0000  plane waves:    2553
 k-point  15 :   0.3684 0.0000 0.0000  plane waves:    2559
 k-point  16 :   0.3947 0.0000 0.0000  plane waves:    2541
 k-point  17 :   0.4211 0.0000 0.0000  plane waves:    2531
 k-point  18 :   0.4474 0.0000 0.0000  plane waves:    2532
 k-point  19 :   0.4737 0.0000 0.0000  plane waves:    2540
 k-point  20 :   0.5000 0.0000 0.0000  plane waves:    2538
 k-point  21 :   0.5000 0.0000 0.0000  plane waves:    2538
 k-point  22 :   0.4912 0.0175 0.0000  plane waves:    2534
 k-point  23 :   0.4825 0.0351 0.0000  plane waves:    2538
 k-point  24 :   0.4737 0.0526 0.0000  plane waves:    2544
 k-point  25 :   0.4649 0.0702 0.0000  plane waves:    2532
 k-point  26 :   0.4561 0.0877 0.0000  plane waves:    2536
 k-point  27 :   0.4474 0.1053 0.0000  plane waves:    2538
 k-point  28 :   0.4386 0.1228 0.0000  plane waves:    2534
 k-point  29 :   0.4298 0.1404 0.0000  plane waves:    2524
 k-point  30 :   0.4211 0.1579 0.0000  plane waves:    2522
 k-point  31 :   0.4123 0.1754 0.0000  plane waves:    2522
 k-point  32 :   0.4035 0.1930 0.0000  plane waves:    2514
 k-point  33 :   0.3947 0.2105 0.0000  plane waves:    2512
 k-point  34 :   0.3860 0.2281 0.0000  plane waves:    2520
 k-point  35 :   0.3772 0.2456 0.0000  plane waves:    2516
 k-point  36 :   0.3684 0.2632 0.0000  plane waves:    2512
 k-point  37 :   0.3596 0.2807 0.0000  plane waves:    2510
 k-point  38 :   0.3509 0.2982 0.0000  plane waves:    2514
 k-point  39 :   0.3421 0.3158 0.0000  plane waves:    2522
 k-point  40 :   0.3333 0.3333 0.0000  plane waves:    2532
 k-point  41 :   0.3333 0.3333 0.0000  plane waves:    2532
 k-point  42 :   0.3158 0.3158 0.0000  plane waves:    2522
 k-point  43 :   0.2982 0.2982 0.0000  plane waves:    2522
 k-point  44 :   0.2807 0.2807 0.0000  plane waves:    2526
 k-point  45 :   0.2632 0.2632 0.0000  plane waves:    2518
 k-point  46 :   0.2456 0.2456 0.0000  plane waves:    2538
 k-point  47 :   0.2281 0.2281 0.0000  plane waves:    2542
 k-point  48 :   0.2105 0.2105 0.0000  plane waves:    2537
 k-point  49 :   0.1930 0.1930 0.0000  plane waves:    2549
 k-point  50 :   0.1754 0.1754 0.0000  plane waves:    2553
 k-point  51 :   0.1579 0.1579 0.0000  plane waves:    2557
 k-point  52 :   0.1404 0.1404 0.0000  plane waves:    2557
 k-point  53 :   0.1228 0.1228 0.0000  plane waves:    2555
 k-point  54 :   0.1053 0.1053 0.0000  plane waves:    2559
 k-point  55 :   0.0877 0.0877 0.0000  plane waves:    2565
 k-point  56 :   0.0702 0.0702 0.0000  plane waves:    2565
 k-point  57 :   0.0526 0.0526 0.0000  plane waves:    2561
 k-point  58 :   0.0351 0.0351 0.0000  plane waves:    2565
 k-point  59 :   0.0175 0.0175 0.0000  plane waves:    2551
 k-point  60 :  -0.0000-0.0000 0.0000  plane waves:    2539

 maximum and minimum number of plane-waves per node :      2577     2510

 maximum number of plane-waves:      2577
 maximum index in each direction: 
   IXMAX=    7   IYMAX=    7   IZMAX=   12
   IXMIN=   -8   IYMIN=   -7   IZMIN=  -12


 serial   3D FFT for wavefunctions
 parallel 3D FFT for charge:
    minimum data exchange during FFTs selected (reduces bandwidth)


 total amount of memory used by VASP MPI-rank0   112709. kBytes
=======================================================================

   base      :      30000. kBytes
   nonl-proj :      44747. kBytes
   fftplans  :       9012. kBytes
   grid      :       8505. kBytes
   one-center:        124. kBytes
   wavefun   :      20321. kBytes
 
     INWAV:  cpu time      0.4981: real time      1.4959
 initial charge density was supplied:
 number of electron      38.0000000 magnetization       0.0000000
 keeping initial charge density in first step


--------------------------------------------------------------------------------------------------------


 Maximum index for augmentation-charges        33749 (set IRDMAX)


--------------------------------------------------------------------------------------------------------


 First call to EWALD:  gamma=   0.382
 Maximum number of real-space cells 3x 3x 2
 Maximum number of reciprocal cells 3x 3x 4

    FEWALD:  cpu time      0.0007: real time      0.0019


--------------------------------------- Ionic step        1  -------------------------------------------




--------------------------------------- Iteration      1(   1)  ---------------------------------------


    POTLOK:  cpu time      0.1180: real time      0.1369
    SETDIJ:  cpu time      1.1518: real time      1.1546
     EDDAV:  cpu time      9.5757: real time      9.5835
       DOS:  cpu time      0.0029: real time      0.0111
    --------------------------------------------
      LOOP:  cpu time     10.8486: real time     10.8867

 eigenvalue-minimisations  :  7992
 total energy-change (2. order) :-0.1708179E+02  (-0.4733948E+02)
 number of electron      38.0000000 magnetization       0.0000000
 augmentation part       38.0000000 magnetization       0.0000000

 Free energy of the ion-electron system (eV)
  ---------------------------------------------------
  alpha Z        PSCENC =        73.61797806
  Ewald energy   TEWEN  =     -2702.48007209
  -Hartree energ DENC   =     -1502.12608897
  -exchange      EXHF   =         0.00000000
  -V(xc)+E(xc)   XCENC  =        82.08975864
  PAW double counting   =      4405.34100369    -4434.50773613
  entropy T*S    EENTRO =        -0.00028441
  eigenvalues    EBANDS =      -436.07959755
  atomic energy  EATOM  =      4497.06325368
  Solvation  Ediel_sol  =         0.00000000
  ---------------------------------------------------
  free energy    TOTEN  =       -17.08178508 eV

  energy without entropy =      -17.08150067  energy(sigma->0) =      -17.08164288


--------------------------------------------------------------------------------------------------------




--------------------------------------- Iteration      1(   2)  ---------------------------------------


     EDDAV:  cpu time      9.1504: real time      9.1677
       DOS:  cpu time      0.0010: real time      0.0017
    --------------------------------------------
      LOOP:  cpu time      9.1514: real time      9.1693

 eigenvalue-minimisations  :  6768
 total energy-change (2. order) :-0.7209490E+01  (-0.7202274E+01)
 number of electron      38.0000000 magnetization       0.0000000
 augmentation part       38.0000000 magnetization       0.0000000

 Free energy of the ion-electron system (eV)
  ---------------------------------------------------
  alpha Z        PSCENC =        73.61797806
  Ewald energy   TEWEN  =     -2702.48007209
  -Hartree energ DENC   =     -1502.12608897
  -exchange      EXHF   =         0.00000000
  -V(xc)+E(xc)   XCENC  =        82.08975864
  PAW double counting   =      4405.34100369    -4434.50773613
  entropy T*S    EENTRO =        -0.00000000
  eigenvalues    EBANDS =      -443.28937162
  atomic energy  EATOM  =      4497.06325368
  Solvation  Ediel_sol  =         0.00000000
  ---------------------------------------------------
  free energy    TOTEN  =       -24.29127474 eV

  energy without entropy =      -24.29127474  energy(sigma->0) =      -24.29127474


--------------------------------------------------------------------------------------------------------




--------------------------------------- Iteration      1(   3)  ---------------------------------------


     EDDAV:  cpu time      9.6789: real time      9.6913
       DOS:  cpu time      0.0008: real time      0.0016
    --------------------------------------------
      LOOP:  cpu time      9.6798: real time      9.6931

 eigenvalue-minimisations  :  7908
 total energy-change (2. order) :-0.1366007E+00  (-0.1365853E+00)
 number of electron      38.0000000 magnetization       0.0000000
 augmentation part       38.0000000 magnetization       0.0000000

 Free energy of the ion-electron system (eV)
  ---------------------------------------------------
  alpha Z        PSCENC =        73.61797806
  Ewald energy   TEWEN  =     -2702.48007209
  -Hartree energ DENC   =     -1502.12608897
  -exchange      EXHF   =         0.00000000
  -V(xc)+E(xc)   XCENC  =        82.08975864
  PAW double counting   =      4405.34100369    -4434.50773613
  entropy T*S    EENTRO =        -0.00000000
  eigenvalues    EBANDS =      -443.42597228
  atomic energy  EATOM  =      4497.06325368
  Solvation  Ediel_sol  =         0.00000000
  ---------------------------------------------------
  free energy    TOTEN  =       -24.42787540 eV

  energy without entropy =      -24.42787540  energy(sigma->0) =      -24.42787540


--------------------------------------------------------------------------------------------------------




--------------------------------------- Iteration      1(   4)  ---------------------------------------


     EDDAV:  cpu time      8.5478: real time      8.5619
       DOS:  cpu time      0.0007: real time      0.0014
    --------------------------------------------
      LOOP:  cpu time      8.5483: real time      8.5631

 eigenvalue-minimisations  :  7044
 total energy-change (2. order) :-0.2447029E-02  (-0.2447024E-02)
 number of electron      38.0000000 magnetization       0.0000000
 augmentation part       38.0000000 magnetization       0.0000000

 Free energy of the ion-electron system (eV)
  ---------------------------------------------------
  alpha Z        PSCENC =        73.61797806
  Ewald energy   TEWEN  =     -2702.48007209
  -Hartree energ DENC   =     -1502.12608897
  -exchange      EXHF   =         0.00000000
  -V(xc)+E(xc)   XCENC  =        82.08975864
  PAW double counting   =      4405.34100369    -4434.50773613
  entropy T*S    EENTRO =        -0.00000000
  eigenvalues    EBANDS =      -443.42841931
  atomic energy  EATOM  =      4497.06325368
  Solvation  Ediel_sol  =         0.00000000
  ---------------------------------------------------
  free energy    TOTEN  =       -24.43032243 eV

  energy without entropy =      -24.43032243  energy(sigma->0) =      -24.43032243


--------------------------------------------------------------------------------------------------------




--------------------------------------- Iteration      1(   5)  ---------------------------------------


     EDDAV:  cpu time      9.5922: real time      9.6047
       DOS:  cpu time      0.0007: real time      0.0015
    --------------------------------------------
      LOOP:  cpu time      9.5929: real time      9.6061

 eigenvalue-minimisations  :  8208
 total energy-change (2. order) :-0.9794671E-04  (-0.9794649E-04)
 number of electron      38.0000000 magnetization       0.0000000
 augmentation part       38.0000000 magnetization       0.0000000

 Free energy of the ion-electron system (eV)
  ---------------------------------------------------
  alpha Z        PSCENC =        73.61797806
  Ewald energy   TEWEN  =     -2702.48007209
  -Hartree energ DENC   =     -1502.12608897
  -exchange      EXHF   =         0.00000000
  -V(xc)+E(xc)   XCENC  =        82.08975864
  PAW double counting   =      4405.34100369    -4434.50773613
  entropy T*S    EENTRO =        -0.00000000
  eigenvalues    EBANDS =      -443.42851726
  atomic energy  EATOM  =      4497.06325368
  Solvation  Ediel_sol  =         0.00000000
  ---------------------------------------------------
  free energy    TOTEN  =       -24.43042037 eV

  energy without entropy =      -24.43042037  energy(sigma->0) =      -24.43042037


--------------------------------------------------------------------------------------------------------




--------------------------------------- Iteration      1(   6)  ---------------------------------------


     EDDAV:  cpu time      8.1806: real time      8.1932
       DOS:  cpu time      0.0008: real time      0.0015
    --------------------------------------------
      LOOP:  cpu time      8.1813: real time      8.1947

 eigenvalue-minimisations  :  6636
 total energy-change (2. order) :-0.3119784E-05  (-0.3119770E-05)
 number of electron      38.0000000 magnetization       0.0000000
 augmentation part       38.0000000 magnetization       0.0000000

 Free energy of the ion-electron system (eV)
  ---------------------------------------------------
  alpha Z        PSCENC =        73.61797806
  Ewald energy   TEWEN  =     -2702.48007209
  -Hartree energ DENC   =     -1502.12608897
  -exchange      EXHF   =         0.00000000
  -V(xc)+E(xc)   XCENC  =        82.08975864
  PAW double counting   =      4405.34100369    -4434.50773613
  entropy T*S    EENTRO =        -0.00000000
  eigenvalues    EBANDS =      -443.42852038
  atomic energy  EATOM  =      4497.06325368
  Solvation  Ediel_sol  =         0.00000000
  ---------------------------------------------------
  free energy    TOTEN  =       -24.43042349 eV

  energy without entropy =      -24.43042349  energy(sigma->0) =      -24.43042349


--------------------------------------------------------------------------------------------------------




--------------------------------------- Iteration      1(   7)  ---------------------------------------


     EDDAV:  cpu time      7.1778: real time      7.1902
       DOS:  cpu time      0.0007: real time      0.0015
    --------------------------------------------
      LOOP:  cpu time      7.1785: real time      7.1916

 eigenvalue-minimisations  :  5496
 total energy-change (2. order) :-0.1316057E-06  (-0.1316057E-06)
 number of electron      38.0000000 magnetization       0.0000000
 augmentation part       38.0000000 magnetization       0.0000000

 Free energy of the ion-electron system (eV)
  ---------------------------------------------------
  alpha Z        PSCENC =        73.61797806
  Ewald energy   TEWEN  =     -2702.48007209
  -Hartree energ DENC   =     -1502.12608897
  -exchange      EXHF   =         0.00000000
  -V(xc)+E(xc)   XCENC  =        82.08975864
  PAW double counting   =      4405.34100369    -4434.50773613
  entropy T*S    EENTRO =        -0.00000000
  eigenvalues    EBANDS =      -443.42852051
  atomic energy  EATOM  =      4497.06325368
  Solvation  Ediel_sol  =         0.00000000
  ---------------------------------------------------
  free energy    TOTEN  =       -24.43042362 eV

  energy without entropy =      -24.43042362  energy(sigma->0) =      -24.43042362


--------------------------------------------------------------------------------------------------------




 average (electrostatic) potential at core
  the test charge radii are     0.9577  1.1897
  (the norm of the test charge is              1.0000)
       1 -68.6207       2 -68.6207       3 -87.9616       4 -87.9616
 
 
 
 E-fermi :   6.5881     XC(G=0):  -9.9235     alpha+bet :-11.2643

 Fermi energy:         6.5881415478

 spin component 1

 k-point     1 :       0.0000    0.0000    0.0000
  band No.  band energies     occupation 
      1     -44.0217      1.00000
      2     -44.0217      1.00000
      3     -44.0161      1.00000
      4     -39.6672      1.00000
      5     -39.6613      1.00000
      6     -39.6613      1.00000
      7      -5.9019      1.00000
      8      -4.6432      1.00000
      9       0.7180      1.00000
     10       2.7892      1.00000
     11       2.7892      1.00000
     12       3.4795      1.00000
     13       3.4921      1.00000
     14       3.4921      1.00000
     15       5.3089      1.00000
     16       5.3089      1.00000
     17       5.7673      1.00000
     18       5.7673      1.00000
     19       5.9628      1.00000
     20       7.2375      0.00000
     21       7.2375      0.00000
     22       7.4018      0.00000
     23       8.5318      0.00000
     24       8.6160      0.00000

 k-point     2 :       0.0263    0.0000    0.0000
  band No.  band energies     occupation 
      1     -44.0217      1.00000
      2     -44.0217      1.00000
      3     -44.0161      1.00000
      4     -39.6672      1.00000
      5     -39.6613      1.00000
      6     -39.6613      1.00000
      7      -5.8963      1.00000
      8      -4.6409      1.00000
      9       0.7258      1.00000
     10       2.7855      1.00000
     11       2.7903      1.00000
     12       3.4774      1.00000
     13       3.4896      1.00000
     14       3.4905      1.00000
     15       5.2595      1.00000
     16       5.3009      1.00000
     17       5.7083      1.00000
     18       5.7622      1.00000
     19       5.9914      1.00000
     20       7.2406      0.00000
     21       7.2455      0.00000
     22       7.4092      0.00000
     23       8.5443      0.00000
     24       8.5916      0.00000

 k-point     3 :       0.0526    0.0000    0.0000
  band No.  band energies     occupation 
      1     -44.0218      1.00000
      2     -44.0217      1.00000
      3     -44.0161      1.00000
      4     -39.6672      1.00000
      5     -39.6613      1.00000
      6     -39.6613      1.00000
      7      -5.8796      1.00000
      8      -4.6341      1.00000
      9       0.7491      1.00000
     10       2.7743      1.00000
     11       2.7935      1.00000
     12       3.4678      1.00000
     13       3.4850      1.00000
     14       3.4859      1.00000
     15       5.1312      1.00000
     16       5.2770      1.00000
     17       5.5498      1.00000
     18       5.7480      1.00000
     19       6.0597      1.00000
     20       7.2430      0.00000
     21       7.2683      0.00000
     22       7.4285      0.00000
     23       8.4109      0.00000
     24       8.5907      0.00000

 k-point     4 :       0.0789    0.0000    0.0000
  band No.  band energies     occupation 
      1     -44.0218      1.00000
      2     -44.0218      1.00000
      3     -44.0161      1.00000
      4     -39.6672      1.00000
      5     -39.6614      1.00000
      6     -39.6613      1.00000
      7      -5.8519      1.00000
      8      -4.6229      1.00000
      9       0.7879      1.00000
     10       2.7560      1.00000
     11       2.7986      1.00000
     12       3.4449      1.00000
     13       3.4786      1.00000
     14       3.4812      1.00000
     15       4.9514      1.00000
     16       5.2372      1.00000
     17       5.3384      1.00000
     18       5.7277      1.00000
     19       6.1353      1.00000
     20       7.2366      0.00000
     21       7.3022      0.00000
     22       7.4525      0.00000
     23       8.2769      0.00000
     24       8.5645      0.00000

 k-point     5 :       0.1053    0.0000    0.0000
  band No.  band energies     occupation 
      1     -44.0219      1.00000
      2     -44.0218      1.00000
      3     -44.0161      1.00000
      4     -39.6672      1.00000
      5     -39.6615      1.00000
      6     -39.6614      1.00000
      7      -5.8136      1.00000
      8      -4.6078      1.00000
      9       0.8419      1.00000
     10       2.7308      1.00000
     11       2.8053      1.00000
     12       3.4041      1.00000
     13       3.4693      1.00000
     14       3.4773      1.00000
     15       4.7368      1.00000
     16       5.1158      1.00000
     17       5.1820      1.00000
     18       5.7046      1.00000
     19       6.1965      1.00000
     20       7.2203      0.00000
     21       7.3425      0.00000
     22       7.4764      0.00000
     23       8.1696      0.00000
     24       8.5366      0.00000

 k-point     6 :       0.1316    0.0000    0.0000
  band No.  band energies     occupation 
      1     -44.0219      1.00000
      2     -44.0218      1.00000
      3     -44.0160      1.00000
      4     -39.6672      1.00000
      5     -39.6616      1.00000
      6     -39.6614      1.00000
      7      -5.7649      1.00000
      8      -4.5891      1.00000
      9       0.9109      1.00000
     10       2.6990      1.00000
     11       2.8131      1.00000
     12       3.3370      1.00000
     13       3.4588      1.00000
     14       3.4727      1.00000
     15       4.5072      1.00000
     16       4.9035      1.00000
     17       5.1132      1.00000
     18       5.6812      1.00000
     19       6.2309      1.00000
     20       7.1950      0.00000
     21       7.3842      0.00000
     22       7.4994      0.00000
     23       8.0996      0.00000
     24       8.5128      0.00000

 k-point     7 :       0.1579    0.0000    0.0000
  band No.  band energies     occupation 
      1     -44.0220      1.00000
      2     -44.0218      1.00000
      3     -44.0160      1.00000
      4     -39.6672      1.00000
      5     -39.6617      1.00000
      6     -39.6614      1.00000
      7      -5.7065      1.00000
      8      -4.5674      1.00000
      9       0.9943      1.00000
     10       2.6605      1.00000
     11       2.8216      1.00000
     12       3.2314      1.00000
     13       3.4481      1.00000
     14       3.4670      1.00000
     15       4.2908      1.00000
     16       4.7065      1.00000
     17       5.0332      1.00000
     18       5.6586      1.00000
     19       6.2320      1.00000
     20       7.1618      0.00000
     21       7.4232      0.00000
     22       7.5222      0.00000
     23       8.0700      0.00000
     24       8.4974      0.00000

 k-point     8 :       0.1842    0.0000    0.0000
  band No.  band energies     occupation 
      1     -44.0221      1.00000
      2     -44.0218      1.00000
      3     -44.0160      1.00000
      4     -39.6671      1.00000
      5     -39.6618      1.00000
      6     -39.6614      1.00000
      7      -5.6388      1.00000
      8      -4.5436      1.00000
      9       1.0917      1.00000
     10       2.6135      1.00000
     11       2.8298      1.00000
     12       3.0785      1.00000
     13       3.4387      1.00000
     14       3.4601      1.00000
     15       4.1112      1.00000
     16       4.5254      1.00000
     17       4.9449      1.00000
     18       5.6372      1.00000
     19       6.1982      1.00000
     20       7.1238      0.00000
     21       7.4570      0.00000
     22       7.5455      0.00000
     23       8.0757      0.00000
     24       8.4933      0.00000

 k-point     9 :       0.2105    0.0000    0.0000
  band No.  band energies     occupation 
      1     -44.0221      1.00000
      2     -44.0218      1.00000
      3     -44.0160      1.00000
      4     -39.6671      1.00000
      5     -39.6619      1.00000
      6     -39.6615      1.00000
      7      -5.5629      1.00000
      8      -4.5186      1.00000
      9       1.2022      1.00000
     10       2.5509      1.00000
     11       2.8371      1.00000
     12       2.8890      1.00000
     13       3.4320      1.00000
     14       3.4516      1.00000
     15       3.9728      1.00000
     16       4.3632      1.00000
     17       4.8510      1.00000
     18       5.6170      1.00000
     19       6.1319      1.00000
     20       7.0845      0.00000
     21       7.4846      0.00000
     22       7.5696      0.00000
     23       8.1051      0.00000
     24       8.5009      0.00000

 k-point    10 :       0.2368    0.0000    0.0000
  band No.  band energies     occupation 
      1     -44.0222      1.00000
      2     -44.0219      1.00000
      3     -44.0160      1.00000
      4     -39.6671      1.00000
      5     -39.6620      1.00000
      6     -39.6615      1.00000
      7      -5.4796      1.00000
      8      -4.4934      1.00000
      9       1.3250      1.00000
     10       2.4445      1.00000
     11       2.7088      1.00000
     12       2.8425      1.00000
     13       3.4296      1.00000
     14       3.4409      1.00000
     15       3.8604      1.00000
     16       4.2268      1.00000
     17       4.7538      1.00000
     18       5.5979      1.00000
     19       6.0383      1.00000
     20       7.0475      0.00000
     21       7.5066      0.00000
     22       7.5944      0.00000
     23       8.1422      0.00000
     24       8.5187      0.00000

 k-point    11 :       0.2632    0.0000    0.0000
  band No.  band energies     occupation 
      1     -44.0223      1.00000
      2     -44.0219      1.00000
      3     -44.0160      1.00000
      4     -39.6671      1.00000
      5     -39.6622      1.00000
      6     -39.6616      1.00000
      7      -5.3901      1.00000
      8      -4.4692      1.00000
      9       1.4585      1.00000
     10       2.2576      1.00000
     11       2.5957      1.00000
     12       2.8454      1.00000
     13       3.4264      1.00000
     14       3.4328      1.00000
     15       3.7553      1.00000
     16       4.1230      1.00000
     17       4.6552      1.00000
     18       5.5798      1.00000
     19       5.9230      1.00000
     20       7.0146      0.00000
     21       7.5245      0.00000
     22       7.6193      0.00000
     23       8.1693      0.00000
     24       8.5441      0.00000

 k-point    12 :       0.2895    0.0000    0.0000
  band No.  band energies     occupation 
      1     -44.0224      1.00000
      2     -44.0219      1.00000
      3     -44.0160      1.00000
      4     -39.6670      1.00000
      5     -39.6623      1.00000
      6     -39.6616      1.00000
      7      -5.2959      1.00000
      8      -4.4474      1.00000
      9       1.5998      1.00000
     10       2.0274      1.00000
     11       2.5297      1.00000
     12       2.8455      1.00000
     13       3.4040      1.00000
     14       3.4427      1.00000
     15       3.6523      1.00000
     16       4.0517      1.00000
     17       4.5570      1.00000
     18       5.5629      1.00000
     19       5.7916      1.00000
     20       6.9864      0.00000
     21       7.5398      0.00000
     22       7.6434      0.00000
     23       8.1703      0.00000
     24       8.5742      0.00000

 k-point    13 :       0.3158    0.0000    0.0000
  band No.  band energies     occupation 
      1     -44.0225      1.00000
      2     -44.0220      1.00000
      3     -44.0159      1.00000
      4     -39.6670      1.00000
      5     -39.6624      1.00000
      6     -39.6616      1.00000
      7      -5.1986      1.00000
      8      -4.4294      1.00000
      9       1.7191      1.00000
     10       1.8230      1.00000
     11       2.4811      1.00000
     12       2.8428      1.00000
     13       3.3647      1.00000
     14       3.4600      1.00000
     15       3.5641      1.00000
     16       4.0041      1.00000
     17       4.4602      1.00000
     18       5.5473      1.00000
     19       5.6492      1.00000
     20       6.9629      0.00000
     21       7.5539      0.00000
     22       7.6650      0.00000
     23       8.1370      0.00000
     24       8.6060      0.00000

 k-point    14 :       0.3421    0.0000    0.0000
  band No.  band energies     occupation 
      1     -44.0226      1.00000
      2     -44.0220      1.00000
      3     -44.0159      1.00000
      4     -39.6670      1.00000
      5     -39.6625      1.00000
      6     -39.6616      1.00000
      7      -5.1003      1.00000
      8      -4.4168      1.00000
      9       1.5551      1.00000
     10       1.9199      1.00000
     11       2.4415      1.00000
     12       2.8378      1.00000
     13       3.2992      1.00000
     14       3.4845      1.00000
     15       3.5071      1.00000
     16       3.9701      1.00000
     17       4.3663      1.00000
     18       5.5011      1.00000
     19       5.5332      1.00000
     20       6.9438      0.00000
     21       7.5673      0.00000
     22       7.6809      0.00000
     23       8.0756      0.00000
     24       8.6372      0.00000

 k-point    15 :       0.3684    0.0000    0.0000
  band No.  band energies     occupation 
      1     -44.0226      1.00000
      2     -44.0220      1.00000
      3     -44.0159      1.00000
      4     -39.6670      1.00000
      5     -39.6626      1.00000
      6     -39.6617      1.00000
      7      -5.0031      1.00000
      8      -4.4110      1.00000
      9       1.3582      1.00000
     10       2.0713      1.00000
     11       2.4101      1.00000
     12       2.8313      1.00000
     13       3.2177      1.00000
     14       3.4770      1.00000
     15       3.5157      1.00000
     16       3.9423      1.00000
     17       4.2763      1.00000
     18       5.3533      1.00000
     19       5.5209      1.00000
     20       6.9285      0.00000
     21       7.5802      0.00000
     22       7.6856      0.00000
     23       8.0054      0.00000
     24       8.6660      0.00000

 k-point    16 :       0.3947    0.0000    0.0000
  band No.  band energies     occupation 
      1     -44.0227      1.00000
      2     -44.0220      1.00000
      3     -44.0159      1.00000
      4     -39.6669      1.00000
      5     -39.6627      1.00000
      6     -39.6617      1.00000
      7      -4.9097      1.00000
      8      -4.4133      1.00000
      9       1.1875      1.00000
     10       2.2125      1.00000
     11       2.3929      1.00000
     12       2.8243      1.00000
     13       3.1377      1.00000
     14       3.4601      1.00000
     15       3.5524      1.00000
     16       3.9162      1.00000
     17       4.1916      1.00000
     18       5.2130      1.00000
     19       5.5104      1.00000
     20       6.9166      0.00000
     21       7.5922      0.00000
     22       7.6718      0.00000
     23       7.9495      0.00000
     24       8.6910      0.00000

 k-point    17 :       0.4211    0.0000    0.0000
  band No.  band energies     occupation 
      1     -44.0227      1.00000
      2     -44.0220      1.00000
      3     -44.0159      1.00000
      4     -39.6669      1.00000
      5     -39.6628      1.00000
      6     -39.6617      1.00000
      7      -4.8233      1.00000
      8      -4.4240      1.00000
      9       1.0494      1.00000
     10       2.2982      1.00000
     11       2.4261      1.00000
     12       2.8177      1.00000
     13       3.0689      1.00000
     14       3.4496      1.00000
     15       3.5926      1.00000
     16       3.8895      1.00000
     17       4.1143      1.00000
     18       5.0890      1.00000
     19       5.5021      1.00000
     20       6.9076      0.00000
     21       7.6026      0.00000
     22       7.6395      0.00000
     23       7.9198      0.00000
     24       8.7112      0.00000

 k-point    18 :       0.4474    0.0000    0.0000
  band No.  band energies     occupation 
      1     -44.0228      1.00000
      2     -44.0220      1.00000
      3     -44.0159      1.00000
      4     -39.6669      1.00000
      5     -39.6628      1.00000
      6     -39.6617      1.00000
      7      -4.7483      1.00000
      8      -4.4422      1.00000
      9       0.9478      1.00000
     10       2.3074      1.00000
     11       2.5200      1.00000
     12       2.8124      1.00000
     13       3.0155      1.00000
     14       3.4428      1.00000
     15       3.6325      1.00000
     16       3.8634      1.00000
     17       4.0479      1.00000
     18       4.9910      1.00000
     19       5.4961      1.00000
     20       6.9014      0.00000
     21       7.6021      0.00000
     22       7.6108      0.00000
     23       7.9099      0.00000
     24       8.7261      0.00000

 k-point    19 :       0.4737    0.0000    0.0000
  band No.  band energies     occupation 
      1     -44.0228      1.00000
      2     -44.0220      1.00000
      3     -44.0159      1.00000
      4     -39.6669      1.00000
      5     -39.6629      1.00000
      6     -39.6617      1.00000
      7      -4.6925      1.00000
      8      -4.4627      1.00000
      9       0.8857      1.00000
     10       2.3027      1.00000
     11       2.5977      1.00000
     12       2.8089      1.00000
     13       2.9805      1.00000
     14       3.4388      1.00000
     15       3.6651      1.00000
     16       3.8428      1.00000
     17       3.9995      1.00000
     18       4.9281      1.00000
     19       5.4924      1.00000
     20       6.8976      0.00000
     21       7.5744      0.00000
     22       7.6160      0.00000
     23       7.9083      0.00000
     24       8.7351      0.00000

 k-point    20 :       0.5000    0.0000    0.0000
  band No.  band energies     occupation 
      1     -44.0228      1.00000
      2     -44.0220      1.00000
      3     -44.0159      1.00000
      4     -39.6669      1.00000
      5     -39.6629      1.00000
      6     -39.6617      1.00000
      7      -4.6703      1.00000
      8      -4.4730      1.00000
      9       0.8648      1.00000
     10       2.3005      1.00000
     11       2.6271      1.00000
     12       2.8078      1.00000
     13       2.9678      1.00000
     14       3.4375      1.00000
     15       3.6784      1.00000
     16       3.8347      1.00000
     17       3.9809      1.00000
     18       4.9064      1.00000
     19       5.4912      1.00000
     20       6.8964      0.00000
     21       7.5644      0.00000
     22       7.6178      0.00000
     23       7.9084      0.00000
     24       8.7382      0.00000

 k-point    21 :       0.5000    0.0000    0.0000
  band No.  band energies     occupation 
      1     -44.0228      1.00000
      2     -44.0220      1.00000
      3     -44.0159      1.00000
      4     -39.6669      1.00000
      5     -39.6629      1.00000
      6     -39.6617      1.00000
      7      -4.6703      1.00000
      8      -4.4730      1.00000
      9       0.8648      1.00000
     10       2.3005      1.00000
     11       2.6271      1.00000
     12       2.8078      1.00000
     13       2.9678      1.00000
     14       3.4375      1.00000
     15       3.6784      1.00000
     16       3.8347      1.00000
     17       3.9809      1.00000
     18       4.9064      1.00000
     19       5.4912      1.00000
     20       6.8964      0.00000
     21       7.5644      0.00000
     22       7.6178      0.00000
     23       7.9084      0.00000
     24       8.7382      0.00000

 k-point    22 :       0.4912    0.0175    0.0000
  band No.  band energies     occupation 
      1     -44.0228      1.00000
      2     -44.0220      1.00000
      3     -44.0159      1.00000
      4     -39.6669      1.00000
      5     -39.6629      1.00000
      6     -39.6617      1.00000
      7      -4.6695      1.00000
      8      -4.4725      1.00000
      9       0.8662      1.00000
     10       2.2996      1.00000
     11       2.6284      1.00000
     12       2.8072      1.00000
     13       2.9701      1.00000
     14       3.4270      1.00000
     15       3.6803      1.00000
     16       3.8252      1.00000
     17       3.9903      1.00000
     18       4.9068      1.00000
     19       5.4854      1.00000
     20       6.9033      0.00000
     21       7.5637      0.00000
     22       7.6171      0.00000
     23       7.9084      0.00000
     24       8.7085      0.00000

 k-point    23 :       0.4825    0.0351    0.0000
  band No.  band energies     occupation 
      1     -44.0228      1.00000
      2     -44.0220      1.00000
      3     -44.0159      1.00000
      4     -39.6669      1.00000
      5     -39.6629      1.00000
      6     -39.6617      1.00000
      7      -4.6671      1.00000
      8      -4.4709      1.00000
      9       0.8703      1.00000
     10       2.2969      1.00000
     11       2.6322      1.00000
     12       2.8059      1.00000
     13       2.9768      1.00000
     14       3.3956      1.00000
     15       3.6857      1.00000
     16       3.8040      1.00000
     17       4.0119      1.00000
     18       4.9080      1.00000
     19       5.4681      1.00000
     20       6.9234      0.00000
     21       7.5617      0.00000
     22       7.6147      0.00000
     23       7.9084      0.00000
     24       8.6341      0.00000

 k-point    24 :       0.4737    0.0526    0.0000
  band No.  band energies     occupation 
      1     -44.0228      1.00000
      2     -44.0221      1.00000
      3     -44.0159      1.00000
      4     -39.6669      1.00000
      5     -39.6629      1.00000
      6     -39.6618      1.00000
      7      -4.6631      1.00000
      8      -4.4683      1.00000
      9       0.8771      1.00000
     10       2.2926      1.00000
     11       2.6386      1.00000
     12       2.8042      1.00000
     13       2.9871      1.00000
     14       3.3436      1.00000
     15       3.6949      1.00000
     16       3.7812      1.00000
     17       4.0366      1.00000
     18       4.9099      1.00000
     19       5.4397      1.00000
     20       6.9547      0.00000
     21       7.5586      0.00000
     22       7.6110      0.00000
     23       7.9084      0.00000
     24       8.5397      0.00000

 k-point    25 :       0.4649    0.0702    0.0000
  band No.  band energies     occupation 
      1     -44.0228      1.00000
      2     -44.0221      1.00000
      3     -44.0159      1.00000
      4     -39.6669      1.00000
      5     -39.6628      1.00000
      6     -39.6618      1.00000
      7      -4.6576      1.00000
      8      -4.4648      1.00000
      9       0.8865      1.00000
     10       2.2867      1.00000
     11       2.6474      1.00000
     12       2.8027      1.00000
     13       3.0003      1.00000
     14       3.2734      1.00000
     15       3.7076      1.00000
     16       3.7613      1.00000
     17       4.0600      1.00000
     18       4.9123      1.00000
     19       5.4008      1.00000
     20       6.9943      0.00000
     21       7.5547      0.00000
     22       7.6060      0.00000
     23       7.9083      0.00000
     24       8.4415      0.00000

 k-point    26 :       0.4561    0.0877    0.0000
  band No.  band energies     occupation 
      1     -44.0228      1.00000
      2     -44.0221      1.00000
      3     -44.0159      1.00000
      4     -39.6669      1.00000
      5     -39.6628      1.00000
      6     -39.6618      1.00000
      7      -4.6505      1.00000
      8      -4.4606      1.00000
      9       0.8982      1.00000
     10       2.2796      1.00000
     11       2.6585      1.00000
     12       2.8020      1.00000
     13       3.0154      1.00000
     14       3.1883      1.00000
     15       3.7239      1.00000
     16       3.7453      1.00000
     17       4.0808      1.00000
     18       4.9149      1.00000
     19       5.3525      1.00000
     20       7.0382      0.00000
     21       7.5508      0.00000
     22       7.6001      0.00000
     23       7.9081      0.00000
     24       8.3481      0.00000

 k-point    27 :       0.4474    0.1053    0.0000
  band No.  band energies     occupation 
      1     -44.0228      1.00000
      2     -44.0221      1.00000
      3     -44.0159      1.00000
      4     -39.6669      1.00000
      5     -39.6628      1.00000
      6     -39.6618      1.00000
      7      -4.6421      1.00000
      8      -4.4557      1.00000
      9       0.9121      1.00000
     10       2.2713      1.00000
     11       2.6716      1.00000
     12       2.8024      1.00000
     13       3.0318      1.00000
     14       3.0925      1.00000
     15       3.7325      1.00000
     16       3.7436      1.00000
     17       4.0985      1.00000
     18       4.9174      1.00000
     19       5.2959      1.00000
     20       7.0820      0.00000
     21       7.5480      0.00000
     22       7.5936      0.00000
     23       7.9077      0.00000
     24       8.2631      0.00000

 k-point    28 :       0.4386    0.1228    0.0000
  band No.  band energies     occupation 
      1     -44.0227      1.00000
      2     -44.0221      1.00000
      3     -44.0159      1.00000
      4     -39.6669      1.00000
      5     -39.6628      1.00000
      6     -39.6619      1.00000
      7      -4.6323      1.00000
      8      -4.4503      1.00000
      9       0.9279      1.00000
     10       2.2621      1.00000
     11       2.6865      1.00000
     12       2.8041      1.00000
     13       2.9901      1.00000
     14       3.0486      1.00000
     15       3.7219      1.00000
     16       3.7666      1.00000
     17       4.1135      1.00000
     18       4.9195      1.00000
     19       5.2327      1.00000
     20       7.1208      0.00000
     21       7.5480      0.00000
     22       7.5870      0.00000
     23       7.9071      0.00000
     24       8.1882      0.00000

 k-point    29 :       0.4298    0.1404    0.0000
  band No.  band energies     occupation 
      1     -44.0227      1.00000
      2     -44.0221      1.00000
      3     -44.0159      1.00000
      4     -39.6669      1.00000
      5     -39.6628      1.00000
      6     -39.6619      1.00000
      7      -4.6212      1.00000
      8      -4.4447      1.00000
      9       0.9451      1.00000
     10       2.2524      1.00000
     11       2.7023      1.00000
     12       2.8071      1.00000
     13       2.8849      1.00000
     14       3.0652      1.00000
     15       3.7127      1.00000
     16       3.7927      1.00000
     17       4.1259      1.00000
     18       4.9207      1.00000
     19       5.1648      1.00000
     20       7.1496      0.00000
     21       7.5531      0.00000
     22       7.5809      0.00000
     23       7.9060      0.00000
     24       8.1234      0.00000

 k-point    30 :       0.4211    0.1579    0.0000
  band No.  band energies     occupation 
      1     -44.0227      1.00000
      2     -44.0222      1.00000
      3     -44.0159      1.00000
      4     -39.6669      1.00000
      5     -39.6628      1.00000
      6     -39.6619      1.00000
      7      -4.6090      1.00000
      8      -4.4392      1.00000
      9       0.9633      1.00000
     10       2.2423      1.00000
     11       2.7150      1.00000
     12       2.7841      1.00000
     13       2.8115      1.00000
     14       3.0812      1.00000
     15       3.7043      1.00000
     16       3.8215      1.00000
     17       4.1361      1.00000
     18       4.9207      1.00000
     19       5.0941      1.00000
     20       7.1645      0.00000
     21       7.5650      0.00000
     22       7.5760      0.00000
     23       7.9043      0.00000
     24       8.0681      0.00000

 k-point    31 :       0.4123    0.1754    0.0000
  band No.  band energies     occupation 
      1     -44.0227      1.00000
      2     -44.0222      1.00000
      3     -44.0159      1.00000
      4     -39.6669      1.00000
      5     -39.6627      1.00000
      6     -39.6620      1.00000
      7      -4.5958      1.00000
      8      -4.4339      1.00000
      9       0.9819      1.00000
     10       2.2321      1.00000
     11       2.6642      1.00000
     12       2.7503      1.00000
     13       2.8171      1.00000
     14       3.0960      1.00000
     15       3.6965      1.00000
     16       3.8527      1.00000
     17       4.1443      1.00000
     18       4.9188      1.00000
     19       5.0231      1.00000
     20       7.1638      0.00000
     21       7.5729      0.00000
     22       7.5839      0.00000
     23       7.9016      0.00000
     24       8.0214      0.00000

 k-point    32 :       0.4035    0.1930    0.0000
  band No.  band energies     occupation 
      1     -44.0227      1.00000
      2     -44.0222      1.00000
      3     -44.0158      1.00000
      4     -39.6669      1.00000
      5     -39.6627      1.00000
      6     -39.6620      1.00000
      7      -4.5817      1.00000
      8      -4.4292      1.00000
      9       1.0004      1.00000
     10       2.2220      1.00000
     11       2.5687      1.00000
     12       2.7666      1.00000
     13       2.8237      1.00000
     14       3.1092      1.00000
     15       3.6890      1.00000
     16       3.8855      1.00000
     17       4.1506      1.00000
     18       4.9146      1.00000
     19       4.9542      1.00000
     20       7.1484      0.00000
     21       7.5722      0.00000
     22       7.6081      0.00000
     23       7.8975      0.00000
     24       7.9822      0.00000

 k-point    33 :       0.3947    0.2105    0.0000
  band No.  band energies     occupation 
      1     -44.0226      1.00000
      2     -44.0223      1.00000
      3     -44.0158      1.00000
      4     -39.6669      1.00000
      5     -39.6627      1.00000
      6     -39.6621      1.00000
      7      -4.5668      1.00000
      8      -4.4255      1.00000
      9       1.0178      1.00000
     10       2.2123      1.00000
     11       2.4775      1.00000
     12       2.7862      1.00000
     13       2.8313      1.00000
     14       3.1204      1.00000
     15       3.6818      1.00000
     16       3.9194      1.00000
     17       4.1551      1.00000
     18       4.8899      1.00000
     19       4.9073      1.00000
     20       7.1216      0.00000
     21       7.5743      0.00000
     22       7.6348      0.00000
     23       7.8912      0.00000
     24       7.9492      0.00000

 k-point    34 :       0.3860    0.2281    0.0000
  band No.  band energies     occupation 
      1     -44.0226      1.00000
      2     -44.0223      1.00000
      3     -44.0158      1.00000
      4     -39.6669      1.00000
      5     -39.6626      1.00000
      6     -39.6621      1.00000
      7      -4.5514      1.00000
      8      -4.4231      1.00000
      9       1.0335      1.00000
     10       2.2032      1.00000
     11       2.3950      1.00000
     12       2.8060      1.00000
     13       2.8394      1.00000
     14       3.1293      1.00000
     15       3.6749      1.00000
     16       3.9534      1.00000
     17       4.1578      1.00000
     18       4.8327      1.00000
     19       4.8964      1.00000
     20       7.0871      0.00000
     21       7.5797      0.00000
     22       7.6612      0.00000
     23       7.8822      0.00000
     24       7.9215      0.00000

 k-point    35 :       0.3772    0.2456    0.0000
  band No.  band energies     occupation 
      1     -44.0226      1.00000
      2     -44.0223      1.00000
      3     -44.0158      1.00000
      4     -39.6669      1.00000
      5     -39.6626      1.00000
      6     -39.6622      1.00000
      7      -4.5355      1.00000
      8      -4.4224      1.00000
      9       1.0467      1.00000
     10       2.1947      1.00000
     11       2.3235      1.00000
     12       2.8251      1.00000
     13       2.8478      1.00000
     14       3.1358      1.00000
     15       3.6683      1.00000
     16       3.9865      1.00000
     17       4.1584      1.00000
     18       4.7853      1.00000
     19       4.8814      1.00000
     20       7.0491      0.00000
     21       7.5885      0.00000
     22       7.6850      0.00000
     23       7.8697      0.00000
     24       7.8982      0.00000

 k-point    36 :       0.3684    0.2632    0.0000
  band No.  band energies     occupation 
      1     -44.0226      1.00000
      2     -44.0224      1.00000
      3     -44.0158      1.00000
      4     -39.6669      1.00000
      5     -39.6626      1.00000
      6     -39.6622      1.00000
      7      -4.5194      1.00000
      8      -4.4237      1.00000
      9       1.0567      1.00000
     10       2.1871      1.00000
     11       2.2646      1.00000
     12       2.8426      1.00000
     13       2.8561      1.00000
     14       3.1397      1.00000
     15       3.6622      1.00000
     16       4.0178      1.00000
     17       4.1565      1.00000
     18       4.7500      1.00000
     19       4.8622      1.00000
     20       7.0116      0.00000
     21       7.6008      0.00000
     22       7.7037      0.00000
     23       7.8545      0.00000
     24       7.8786      0.00000

 k-point    37 :       0.3596    0.2807    0.0000
  band No.  band energies     occupation 
      1     -44.0226      1.00000
      2     -44.0224      1.00000
      3     -44.0158      1.00000
      4     -39.6669      1.00000
      5     -39.6625      1.00000
      6     -39.6623      1.00000
      7      -4.5032      1.00000
      8      -4.4274      1.00000
      9       1.0633      1.00000
     10       2.1805      1.00000
     11       2.2196      1.00000
     12       2.8577      1.00000
     13       2.8638      1.00000
     14       3.1414      1.00000
     15       3.6568      1.00000
     16       4.0462      1.00000
     17       4.1519      1.00000
     18       4.7286      1.00000
     19       4.8388      1.00000
     20       6.9783      0.00000
     21       7.6165      0.00000
     22       7.7145      0.00000
     23       7.8397      0.00000
     24       7.8623      0.00000

 k-point    38 :       0.3509    0.2982    0.0000
  band No.  band energies     occupation 
      1     -44.0225      1.00000
      2     -44.0224      1.00000
      3     -44.0158      1.00000
      4     -39.6669      1.00000
      5     -39.6625      1.00000
      6     -39.6623      1.00000
      7      -4.4872      1.00000
      8      -4.4339      1.00000
      9       1.0667      1.00000
     10       2.1750      1.00000
     11       2.1887      1.00000
     12       2.8693      1.00000
     13       2.8704      1.00000
     14       3.1414      1.00000
     15       3.6526      1.00000
     16       4.0714      1.00000
     17       4.1437      1.00000
     18       4.7222      1.00000
     19       4.8120      1.00000
     20       6.9522      0.00000
     21       7.6354      0.00000
     22       7.7137      0.00000
     23       7.8300      0.00000
     24       7.8488      0.00000

 k-point    39 :       0.3421    0.3158    0.0000
  band No.  band energies     occupation 
      1     -44.0225      1.00000
      2     -44.0225      1.00000
      3     -44.0158      1.00000
      4     -39.6669      1.00000
      5     -39.6625      1.00000
      6     -39.6624      1.00000
      7      -4.4716      1.00000
      8      -4.4435      1.00000
      9       1.0677      1.00000
     10       2.1707      1.00000
     11       2.1718      1.00000
     12       2.8754      1.00000
     13       2.8765      1.00000
     14       3.1406      1.00000
     15       3.6497      1.00000
     16       4.0938      1.00000
     17       4.1314      1.00000
     18       4.7309      1.00000
     19       4.7830      1.00000
     20       6.9355      0.00000
     21       7.6569      0.00000
     22       7.7009      0.00000
     23       7.8281      0.00000
     24       7.8384      0.00000

 k-point    40 :       0.3333    0.3333    0.0000
  band No.  band energies     occupation 
      1     -44.0225      1.00000
      2     -44.0225      1.00000
      3     -44.0158      1.00000
      4     -39.6669      1.00000
      5     -39.6624      1.00000
      6     -39.6624      1.00000
      7      -4.4565      1.00000
      8      -4.4565      1.00000
      9       1.0677      1.00000
     10       2.1679      1.00000
     11       2.1679      1.00000
     12       2.8782      1.00000
     13       2.8782      1.00000
     14       3.1400      1.00000
     15       3.6487      1.00000
     16       4.1142      1.00000
     17       4.1142      1.00000
     18       4.7535      1.00000
     19       4.7535      1.00000
     20       6.9298      0.00000
     21       7.6800      0.00000
     22       7.6800      0.00000
     23       7.8315      0.00000
     24       7.8315      0.00000

 k-point    41 :       0.3333    0.3333    0.0000
  band No.  band energies     occupation 
      1     -44.0225      1.00000
      2     -44.0225      1.00000
      3     -44.0158      1.00000
      4     -39.6669      1.00000
      5     -39.6624      1.00000
      6     -39.6624      1.00000
      7      -4.4565      1.00000
      8      -4.4565      1.00000
      9       1.0677      1.00000
     10       2.1679      1.00000
     11       2.1679      1.00000
     12       2.8782      1.00000
     13       2.8782      1.00000
     14       3.1400      1.00000
     15       3.6487      1.00000
     16       4.1142      1.00000
     17       4.1142      1.00000
     18       4.7535      1.00000
     19       4.7535      1.00000
     20       6.9298      0.00000
     21       7.6800      0.00000
     22       7.6800      0.00000
     23       7.8315      0.00000
     24       7.8315      0.00000

 k-point    42 :       0.3158    0.3158    0.0000
  band No.  band energies     occupation 
      1     -44.0225      1.00000
      2     -44.0224      1.00000
      3     -44.0158      1.00000
      4     -39.6669      1.00000
      5     -39.6625      1.00000
      6     -39.6623      1.00000
      7      -4.4936      1.00000
      8      -4.4286      1.00000
      9       1.0714      1.00000
     10       2.1668      1.00000
     11       2.1928      1.00000
     12       2.8606      1.00000
     13       2.8759      1.00000
     14       3.1443      1.00000
     15       3.6535      1.00000
     16       4.0631      1.00000
     17       4.1546      1.00000
     18       4.7013      1.00000
     19       4.8332      1.00000
     20       6.9527      0.00000
     21       7.6299      0.00000
     22       7.7216      0.00000
     23       7.8357      0.00000
     24       7.8419      0.00000

 k-point    43 :       0.2982    0.2982    0.0000
  band No.  band energies     occupation 
      1     -44.0226      1.00000
      2     -44.0224      1.00000
      3     -44.0158      1.00000
      4     -39.6669      1.00000
      5     -39.6625      1.00000
      6     -39.6622      1.00000
      7      -4.5465      1.00000
      8      -4.4052      1.00000
      9       1.0919      1.00000
     10       2.1726      1.00000
     11       2.2489      1.00000
     12       2.8098      1.00000
     13       2.8656      1.00000
     14       3.1603      1.00000
     15       3.6687      1.00000
     16       3.9911      1.00000
     17       4.2019      1.00000
     18       4.6693      1.00000
     19       4.9455      1.00000
     20       7.0170      0.00000
     21       7.5812      0.00000
     22       7.7369      0.00000
     23       7.8491      0.00000
     24       7.8808      0.00000

 k-point    44 :       0.2807    0.2807    0.0000
  band No.  band energies     occupation 
      1     -44.0226      1.00000
      2     -44.0223      1.00000
      3     -44.0159      1.00000
      4     -39.6669      1.00000
      5     -39.6626      1.00000
      6     -39.6621      1.00000
      7      -4.6153      1.00000
      8      -4.3876      1.00000
      9       1.1402      1.00000
     10       2.1862      1.00000
     11       2.3207      1.00000
     12       2.7249      1.00000
     13       2.8551      1.00000
     14       3.1885      1.00000
     15       3.6936      1.00000
     16       3.9074      1.00000
     17       4.2604      1.00000
     18       4.6631      1.00000
     19       5.0784      1.00000
     20       7.1090      0.00000
     21       7.5422      0.00000
     22       7.7307      0.00000
     23       7.8507      0.00000
     24       7.9572      0.00000

 k-point    45 :       0.2632    0.2632    0.0000
  band No.  band energies     occupation 
      1     -44.0226      1.00000
      2     -44.0222      1.00000
      3     -44.0159      1.00000
      4     -39.6669      1.00000
      5     -39.6626      1.00000
      6     -39.6621      1.00000
      7      -4.6988      1.00000
      8      -4.3768      1.00000
      9       1.2231      1.00000
     10       2.2085      1.00000
     11       2.3856      1.00000
     12       2.6199      1.00000
     13       2.8533      1.00000
     14       3.2265      1.00000
     15       3.7253      1.00000
     16       3.8243      1.00000
     17       4.3308      1.00000
     18       4.6815      1.00000
     19       5.2238      1.00000
     20       7.2032      0.00000
     21       7.5249      0.00000
     22       7.7160      0.00000
     23       7.8461      0.00000
     24       8.0459      0.00000

 k-point    46 :       0.2456    0.2456    0.0000
  band No.  band energies     occupation 
      1     -44.0226      1.00000
      2     -44.0222      1.00000
      3     -44.0159      1.00000
      4     -39.6669      1.00000
      5     -39.6626      1.00000
      6     -39.6620      1.00000
      7      -4.7948      1.00000
      8      -4.3733      1.00000
      9       1.3432      1.00000
     10       2.2394      1.00000
     11       2.3646      1.00000
     12       2.5729      1.00000
     13       2.8669      1.00000
     14       3.2727      1.00000
     15       3.7416      1.00000
     16       3.7682      1.00000
     17       4.4120      1.00000
     18       4.7211      1.00000
     19       5.3760      1.00000
     20       7.2626      0.00000
     21       7.5483      0.00000
     22       7.6956      0.00000
     23       7.8358      0.00000
     24       8.1365      0.00000

 k-point    47 :       0.2281    0.2281    0.0000
  band No.  band energies     occupation 
      1     -44.0226      1.00000
      2     -44.0221      1.00000
      3     -44.0159      1.00000
      4     -39.6669      1.00000
      5     -39.6626      1.00000
      6     -39.6619      1.00000
      7      -4.9004      1.00000
      8      -4.3774      1.00000
      9       1.4999      1.00000
     10       2.2229      1.00000
     11       2.2785      1.00000
     12       2.6223      1.00000
     13       2.8994      1.00000
     14       3.3270      1.00000
     15       3.6818      1.00000
     16       3.8001      1.00000
     17       4.5027      1.00000
     18       4.7786      1.00000
     19       5.5311      1.00000
     20       7.2752      0.00000
     21       7.6072      0.00000
     22       7.6692      0.00000
     23       7.8216      0.00000
     24       8.2204      0.00000

 k-point    48 :       0.2105    0.2105    0.0000
  band No.  band energies     occupation 
      1     -44.0225      1.00000
      2     -44.0221      1.00000
      3     -44.0159      1.00000
      4     -39.6669      1.00000
      5     -39.6625      1.00000
      6     -39.6618      1.00000
      7      -5.0123      1.00000
      8      -4.3886      1.00000
      9       1.6905      1.00000
     10       2.0485      1.00000
     11       2.3243      1.00000
     12       2.6854      1.00000
     13       2.9514      1.00000
     14       3.3909      1.00000
     15       3.6290      1.00000
     16       3.8357      1.00000
     17       4.6017      1.00000
     18       4.8501      1.00000
     19       5.6850      1.00000
     20       7.2667      0.00000
     21       7.6359      0.00000
     22       7.6651      0.00000
     23       7.8098      0.00000
     24       8.2882      0.00000

 k-point    49 :       0.1930    0.1930    0.0000
  band No.  band energies     occupation 
      1     -44.0225      1.00000
      2     -44.0220      1.00000
      3     -44.0159      1.00000
      4     -39.6670      1.00000
      5     -39.6624      1.00000
      6     -39.6617      1.00000
      7      -5.1271      1.00000
      8      -4.4063      1.00000
      9       1.8558      1.00000
     10       1.9227      1.00000
     11       2.3745      1.00000
     12       2.7407      1.00000
     13       3.0202      1.00000
     14       3.4683      1.00000
     15       3.5865      1.00000
     16       3.8714      1.00000
     17       4.7079      1.00000
     18       4.9308      1.00000
     19       5.8341      1.00000
     20       7.2556      0.00000
     21       7.5953      0.00000
     22       7.6934      0.00000
     23       7.8182      0.00000
     24       8.3310      0.00000

 k-point    50 :       0.1754    0.1754    0.0000
  band No.  band energies     occupation 
      1     -44.0224      1.00000
      2     -44.0220      1.00000
      3     -44.0159      1.00000
      4     -39.6670      1.00000
      5     -39.6623      1.00000
      6     -39.6617      1.00000
      7      -5.2416      1.00000
      8      -4.4293      1.00000
      9       1.6852      1.00000
     10       2.1590      1.00000
     11       2.4272      1.00000
     12       2.7843      1.00000
     13       3.0989      1.00000
     14       3.5534      1.00000
     15       3.5654      1.00000
     16       3.9099      1.00000
     17       4.8206      1.00000
     18       5.0149      1.00000
     19       5.9740      1.00000
     20       7.2492      0.00000
     21       7.5480      0.00000
     22       7.6843      0.00000
     23       7.8592      0.00000
     24       8.3427      0.00000

 k-point    51 :       0.1579    0.1579    0.0000
  band No.  band energies     occupation 
      1     -44.0223      1.00000
      2     -44.0219      1.00000
      3     -44.0160      1.00000
      4     -39.6670      1.00000
      5     -39.6622      1.00000
      6     -39.6616      1.00000
      7      -5.3530      1.00000
      8      -4.4562      1.00000
      9       1.5150      1.00000
     10       2.4159      1.00000
     11       2.4805      1.00000
     12       2.8169      1.00000
     13       3.1783      1.00000
     14       3.5290      1.00000
     15       3.6891      1.00000
     16       3.9571      1.00000
     17       4.9388      1.00000
     18       5.0965      1.00000
     19       6.0994      1.00000
     20       7.2491      0.00000
     21       7.4963      0.00000
     22       7.6575      0.00000
     23       7.9212      0.00000
     24       8.3228      0.00000

 k-point    52 :       0.1404    0.1404    0.0000
  band No.  band energies     occupation 
      1     -44.0222      1.00000
      2     -44.0219      1.00000
      3     -44.0160      1.00000
      4     -39.6671      1.00000
      5     -39.6620      1.00000
      6     -39.6615      1.00000
      7      -5.4585      1.00000
      8      -4.4855      1.00000
      9       1.3564      1.00000
     10       2.5331      1.00000
     11       2.6632      1.00000
     12       2.8495      1.00000
     13       3.2503      1.00000
     14       3.5118      1.00000
     15       3.8436      1.00000
     16       4.0236      1.00000
     17       5.0612      1.00000
     18       5.1702      1.00000
     19       6.2037      1.00000
     20       7.2540      0.00000
     21       7.4441      0.00000
     22       7.6252      0.00000
     23       7.9983      0.00000
     24       8.2783      0.00000

 k-point    53 :       0.1228    0.1228    0.0000
  band No.  band energies     occupation 
      1     -44.0221      1.00000
      2     -44.0218      1.00000
      3     -44.0160      1.00000
      4     -39.6671      1.00000
      5     -39.6619      1.00000
      6     -39.6615      1.00000
      7      -5.5561      1.00000
      8      -4.5156      1.00000
      9       1.2122      1.00000
     10       2.5840      1.00000
     11       2.7971      1.00000
     12       2.9678      1.00000
     13       3.3115      1.00000
     14       3.5005      1.00000
     15       4.0272      1.00000
     16       4.1260      1.00000
     17       5.1862      1.00000
     18       5.2330      1.00000
     19       6.2789      1.00000
     20       7.2615      0.00000
     21       7.3967      0.00000
     22       7.5915      0.00000
     23       8.0893      0.00000
     24       8.2227      0.00000

 k-point    54 :       0.1053    0.1053    0.0000
  band No.  band energies     occupation 
      1     -44.0221      1.00000
      2     -44.0218      1.00000
      3     -44.0160      1.00000
      4     -39.6671      1.00000
      5     -39.6618      1.00000
      6     -39.6614      1.00000
      7      -5.6439      1.00000
      8      -4.5451      1.00000
      9       1.0843      1.00000
     10       2.6319      1.00000
     11       2.8144      1.00000
     12       3.1529      1.00000
     13       3.3619      1.00000
     14       3.4937      1.00000
     15       4.2331      1.00000
     16       4.2845      1.00000
     17       5.2839      1.00000
     18       5.3114      1.00000
     19       6.3167      1.00000
     20       7.2689      0.00000
     21       7.3580      0.00000
     22       7.5585      0.00000
     23       8.1740      0.00000
     24       8.1909      0.00000

 k-point    55 :       0.0877    0.0877    0.0000
  band No.  band energies     occupation 
      1     -44.0220      1.00000
      2     -44.0218      1.00000
      3     -44.0160      1.00000
      4     -39.6672      1.00000
      5     -39.6617      1.00000
      6     -39.6614      1.00000
      7      -5.7205      1.00000
      8      -4.5724      1.00000
      9       0.9742      1.00000
     10       2.6757      1.00000
     11       2.8134      1.00000
     12       3.2934      1.00000
     13       3.4028      1.00000
     14       3.4898      1.00000
     15       4.4526      1.00000
     16       4.5081      1.00000
     17       5.3247      1.00000
     18       5.4329      1.00000
     19       6.3120      1.00000
     20       7.2738      0.00000
     21       7.3283      0.00000
     22       7.5268      0.00000
     23       8.1525      0.00000
     24       8.2966      0.00000

 k-point    56 :       0.0702    0.0702    0.0000
  band No.  band energies     occupation 
      1     -44.0219      1.00000
      2     -44.0218      1.00000
      3     -44.0160      1.00000
      4     -39.6672      1.00000
      5     -39.6615      1.00000
      6     -39.6613      1.00000
      7      -5.7847      1.00000
      8      -4.5965      1.00000
      9       0.8828      1.00000
     10       2.7142      1.00000
     11       2.8077      1.00000
     12       3.3827      1.00000
     13       3.4354      1.00000
     14       3.4880      1.00000
     15       4.6762      1.00000
     16       4.7798      1.00000
     17       5.3608      1.00000
     18       5.5457      1.00000
     19       6.2660      1.00000
     20       7.2752      0.00000
     21       7.3032      0.00000
     22       7.4962      0.00000
     23       8.1763      0.00000
     24       8.3979      0.00000

 k-point    57 :       0.0526    0.0526    0.0000
  band No.  band energies     occupation 
      1     -44.0218      1.00000
      2     -44.0217      1.00000
      3     -44.0161      1.00000
      4     -39.6672      1.00000
      5     -39.6614      1.00000
      6     -39.6613      1.00000
      7      -5.8354      1.00000
      8      -4.6164      1.00000
      9       0.8111      1.00000
     10       2.7458      1.00000
     11       2.8008      1.00000
     12       3.4352      1.00000
     13       3.4603      1.00000
     14       3.4874      1.00000
     15       4.8934      1.00000
     16       5.0540      1.00000
     17       5.4094      1.00000
     18       5.6427      1.00000
     19       6.1870      1.00000
     20       7.2717      0.00000
     21       7.2793      0.00000
     22       7.4660      0.00000
     23       8.2543      0.00000
     24       8.4859      0.00000

 k-point    58 :       0.0351    0.0351    0.0000
  band No.  band energies     occupation 
      1     -44.0218      1.00000
      2     -44.0217      1.00000
      3     -44.0161      1.00000
      4     -39.6672      1.00000
      5     -39.6614      1.00000
      6     -39.6613      1.00000
      7      -5.8722      1.00000
      8      -4.6311      1.00000
      9       0.7595      1.00000
     10       2.7695      1.00000
     11       2.7947      1.00000
     12       3.4639      1.00000
     13       3.4780      1.00000
     14       3.4881      1.00000
     15       5.0909      1.00000
     16       5.2381      1.00000
     17       5.5253      1.00000
     18       5.7161      1.00000
     19       6.0897      1.00000
     20       7.2578      0.00000
     21       7.2620      0.00000
     22       7.4362      0.00000
     23       8.3816      0.00000
     24       8.5530      0.00000

 k-point    59 :       0.0175    0.0175    0.0000
  band No.  band energies     occupation 
      1     -44.0217      1.00000
      2     -44.0217      1.00000
      3     -44.0161      1.00000
      4     -39.6672      1.00000
      5     -39.6613      1.00000
      6     -39.6613      1.00000
      7      -5.8944      1.00000
      8      -4.6402      1.00000
      9       0.7284      1.00000
     10       2.7842      1.00000
     11       2.7906      1.00000
     12       3.4766      1.00000
     13       3.4885      1.00000
     14       3.4903      1.00000
     15       5.2450      1.00000
     16       5.2970      1.00000
     17       5.6922      1.00000
     18       5.7575      1.00000
     19       6.0006      1.00000
     20       7.2428      0.00000
     21       7.2466      0.00000
     22       7.4116      0.00000
     23       8.5316      0.00000
     24       8.5859      0.00000

 k-point    60 :      -0.0000   -0.0000    0.0000
  band No.  band energies     occupation 
      1     -44.0217      1.00000
      2     -44.0217      1.00000
      3     -44.0161      1.00000
      4     -39.6672      1.00000
      5     -39.6613      1.00000
      6     -39.6613      1.00000
      7      -5.9019      1.00000
      8      -4.6432      1.00000
      9       0.7180      1.00000
     10       2.7892      1.00000
     11       2.7892      1.00000
     12       3.4795      1.00000
     13       3.4921      1.00000
     14       3.4921      1.00000
     15       5.3089      1.00000
     16       5.3089      1.00000
     17       5.7673      1.00000
     18       5.7673      1.00000
     19       5.9628      1.00000
     20       7.2375      0.00000
     21       7.2375      0.00000
     22       7.4018      0.00000
     23       8.5319      0.00000
     24       8.6160      0.00000
 Fermi energy:         6.5881415478

 spin component 2

 k-point     1 :       0.0000    0.0000    0.0000
  band No.  band energies     occupation 
      1     -44.0217      1.00000
      2     -44.0217      1.00000
      3     -44.0161      1.00000
      4     -39.6672      1.00000
      5     -39.6613      1.00000
      6     -39.6613      1.00000
      7      -5.9019      1.00000
      8      -4.6432      1.00000
      9       0.7180      1.00000
     10       2.7892      1.00000
     11       2.7892      1.00000
     12       3.4795      1.00000
     13       3.4921      1.00000
     14       3.4921      1.00000
     15       5.3089      1.00000
     16       5.3089      1.00000
     17       5.7673      1.00000
     18       5.7673      1.00000
     19       5.9628      1.00000
     20       7.2375      0.00000
     21       7.2375      0.00000
     22       7.4018      0.00000
     23       8.5318      0.00000
     24       8.6160      0.00000

 k-point     2 :       0.0263    0.0000    0.0000
  band No.  band energies     occupation 
      1     -44.0217      1.00000
      2     -44.0217      1.00000
      3     -44.0161      1.00000
      4     -39.6672      1.00000
      5     -39.6613      1.00000
      6     -39.6613      1.00000
      7      -5.8963      1.00000
      8      -4.6409      1.00000
      9       0.7258      1.00000
     10       2.7855      1.00000
     11       2.7903      1.00000
     12       3.4774      1.00000
     13       3.4896      1.00000
     14       3.4905      1.00000
     15       5.2595      1.00000
     16       5.3009      1.00000
     17       5.7083      1.00000
     18       5.7622      1.00000
     19       5.9914      1.00000
     20       7.2406      0.00000
     21       7.2455      0.00000
     22       7.4092      0.00000
     23       8.5443      0.00000
     24       8.5916      0.00000

 k-point     3 :       0.0526    0.0000    0.0000
  band No.  band energies     occupation 
      1     -44.0218      1.00000
      2     -44.0217      1.00000
      3     -44.0161      1.00000
      4     -39.6672      1.00000
      5     -39.6613      1.00000
      6     -39.6613      1.00000
      7      -5.8796      1.00000
      8      -4.6341      1.00000
      9       0.7491      1.00000
     10       2.7743      1.00000
     11       2.7935      1.00000
     12       3.4678      1.00000
     13       3.4850      1.00000
     14       3.4859      1.00000
     15       5.1312      1.00000
     16       5.2770      1.00000
     17       5.5498      1.00000
     18       5.7480      1.00000
     19       6.0597      1.00000
     20       7.2430      0.00000
     21       7.2683      0.00000
     22       7.4285      0.00000
     23       8.4109      0.00000
     24       8.5907      0.00000

 k-point     4 :       0.0789    0.0000    0.0000
  band No.  band energies     occupation 
      1     -44.0218      1.00000
      2     -44.0218      1.00000
      3     -44.0161      1.00000
      4     -39.6672      1.00000
      5     -39.6614      1.00000
      6     -39.6613      1.00000
      7      -5.8519      1.00000
      8      -4.6229      1.00000
      9       0.7879      1.00000
     10       2.7560      1.00000
     11       2.7986      1.00000
     12       3.4449      1.00000
     13       3.4786      1.00000
     14       3.4812      1.00000
     15       4.9514      1.00000
     16       5.2372      1.00000
     17       5.3384      1.00000
     18       5.7277      1.00000
     19       6.1353      1.00000
     20       7.2366      0.00000
     21       7.3022      0.00000
     22       7.4525      0.00000
     23       8.2769      0.00000
     24       8.5645      0.00000

 k-point     5 :       0.1053    0.0000    0.0000
  band No.  band energies     occupation 
      1     -44.0219      1.00000
      2     -44.0218      1.00000
      3     -44.0161      1.00000
      4     -39.6672      1.00000
      5     -39.6615      1.00000
      6     -39.6614      1.00000
      7      -5.8136      1.00000
      8      -4.6078      1.00000
      9       0.8419      1.00000
     10       2.7308      1.00000
     11       2.8053      1.00000
     12       3.4041      1.00000
     13       3.4693      1.00000
     14       3.4773      1.00000
     15       4.7368      1.00000
     16       5.1158      1.00000
     17       5.1820      1.00000
     18       5.7046      1.00000
     19       6.1965      1.00000
     20       7.2203      0.00000
     21       7.3425      0.00000
     22       7.4764      0.00000
     23       8.1696      0.00000
     24       8.5366      0.00000

 k-point     6 :       0.1316    0.0000    0.0000
  band No.  band energies     occupation 
      1     -44.0219      1.00000
      2     -44.0218      1.00000
      3     -44.0160      1.00000
      4     -39.6672      1.00000
      5     -39.6616      1.00000
      6     -39.6614      1.00000
      7      -5.7649      1.00000
      8      -4.5891      1.00000
      9       0.9109      1.00000
     10       2.6990      1.00000
     11       2.8131      1.00000
     12       3.3370      1.00000
     13       3.4588      1.00000
     14       3.4727      1.00000
     15       4.5072      1.00000
     16       4.9035      1.00000
     17       5.1132      1.00000
     18       5.6812      1.00000
     19       6.2309      1.00000
     20       7.1950      0.00000
     21       7.3842      0.00000
     22       7.4994      0.00000
     23       8.0996      0.00000
     24       8.5128      0.00000

 k-point     7 :       0.1579    0.0000    0.0000
  band No.  band energies     occupation 
      1     -44.0220      1.00000
      2     -44.0218      1.00000
      3     -44.0160      1.00000
      4     -39.6672      1.00000
      5     -39.6617      1.00000
      6     -39.6614      1.00000
      7      -5.7065      1.00000
      8      -4.5674      1.00000
      9       0.9943      1.00000
     10       2.6605      1.00000
     11       2.8216      1.00000
     12       3.2314      1.00000
     13       3.4481      1.00000
     14       3.4670      1.00000
     15       4.2908      1.00000
     16       4.7065      1.00000
     17       5.0332      1.00000
     18       5.6586      1.00000
     19       6.2320      1.00000
     20       7.1618      0.00000
     21       7.4232      0.00000
     22       7.5222      0.00000
     23       8.0700      0.00000
     24       8.4974      0.00000

 k-point     8 :       0.1842    0.0000    0.0000
  band No.  band energies     occupation 
      1     -44.0221      1.00000
      2     -44.0218      1.00000
      3     -44.0160      1.00000
      4     -39.6671      1.00000
      5     -39.6618      1.00000
      6     -39.6614      1.00000
      7      -5.6388      1.00000
      8      -4.5436      1.00000
      9       1.0917      1.00000
     10       2.6135      1.00000
     11       2.8298      1.00000
     12       3.0785      1.00000
     13       3.4387      1.00000
     14       3.4601      1.00000
     15       4.1112      1.00000
     16       4.5254      1.00000
     17       4.9449      1.00000
     18       5.6372      1.00000
     19       6.1982      1.00000
     20       7.1238      0.00000
     21       7.4570      0.00000
     22       7.5455      0.00000
     23       8.0757      0.00000
     24       8.4933      0.00000

 k-point     9 :       0.2105    0.0000    0.0000
  band No.  band energies     occupation 
      1     -44.0221      1.00000
      2     -44.0218      1.00000
      3     -44.0160      1.00000
      4     -39.6671      1.00000
      5     -39.6619      1.00000
      6     -39.6615      1.00000
      7      -5.5629      1.00000
      8      -4.5186      1.00000
      9       1.2022      1.00000
     10       2.5509      1.00000
     11       2.8371      1.00000
     12       2.8890      1.00000
     13       3.4320      1.00000
     14       3.4516      1.00000
     15       3.9728      1.00000
     16       4.3632      1.00000
     17       4.8510      1.00000
     18       5.6170      1.00000
     19       6.1319      1.00000
     20       7.0845      0.00000
     21       7.4846      0.00000
     22       7.5696      0.00000
     23       8.1051      0.00000
     24       8.5009      0.00000

 k-point    10 :       0.2368    0.0000    0.0000
  band No.  band energies     occupation 
      1     -44.0222      1.00000
      2     -44.0219      1.00000
      3     -44.0160      1.00000
      4     -39.6671      1.00000
      5     -39.6620      1.00000
      6     -39.6615      1.00000
      7      -5.4796      1.00000
      8      -4.4934      1.00000
      9       1.3250      1.00000
     10       2.4445      1.00000
     11       2.7088      1.00000
     12       2.8425      1.00000
     13       3.4296      1.00000
     14       3.4409      1.00000
     15       3.8604      1.00000
     16       4.2268      1.00000
     17       4.7538      1.00000
     18       5.5979      1.00000
     19       6.0383      1.00000
     20       7.0475      0.00000
     21       7.5066      0.00000
     22       7.5944      0.00000
     23       8.1422      0.00000
     24       8.5187      0.00000

 k-point    11 :       0.2632    0.0000    0.0000
  band No.  band energies     occupation 
      1     -44.0223      1.00000
      2     -44.0219      1.00000
      3     -44.0160      1.00000
      4     -39.6671      1.00000
      5     -39.6622      1.00000
      6     -39.6616      1.00000
      7      -5.3901      1.00000
      8      -4.4692      1.00000
      9       1.4585      1.00000
     10       2.2576      1.00000
     11       2.5957      1.00000
     12       2.8454      1.00000
     13       3.4264      1.00000
     14       3.4328      1.00000
     15       3.7553      1.00000
     16       4.1230      1.00000
     17       4.6552      1.00000
     18       5.5798      1.00000
     19       5.9230      1.00000
     20       7.0146      0.00000
     21       7.5245      0.00000
     22       7.6193      0.00000
     23       8.1693      0.00000
     24       8.5441      0.00000

 k-point    12 :       0.2895    0.0000    0.0000
  band No.  band energies     occupation 
      1     -44.0224      1.00000
      2     -44.0219      1.00000
      3     -44.0160      1.00000
      4     -39.6670      1.00000
      5     -39.6623      1.00000
      6     -39.6616      1.00000
      7      -5.2959      1.00000
      8      -4.4474      1.00000
      9       1.5998      1.00000
     10       2.0274      1.00000
     11       2.5297      1.00000
     12       2.8455      1.00000
     13       3.4040      1.00000
     14       3.4427      1.00000
     15       3.6523      1.00000
     16       4.0517      1.00000
     17       4.5570      1.00000
     18       5.5629      1.00000
     19       5.7916      1.00000
     20       6.9864      0.00000
     21       7.5398      0.00000
     22       7.6434      0.00000
     23       8.1703      0.00000
     24       8.5742      0.00000

 k-point    13 :       0.3158    0.0000    0.0000
  band No.  band energies     occupation 
      1     -44.0225      1.00000
      2     -44.0220      1.00000
      3     -44.0159      1.00000
      4     -39.6670      1.00000
      5     -39.6624      1.00000
      6     -39.6616      1.00000
      7      -5.1986      1.00000
      8      -4.4294      1.00000
      9       1.7191      1.00000
     10       1.8230      1.00000
     11       2.4811      1.00000
     12       2.8428      1.00000
     13       3.3647      1.00000
     14       3.4600      1.00000
     15       3.5641      1.00000
     16       4.0041      1.00000
     17       4.4602      1.00000
     18       5.5473      1.00000
     19       5.6492      1.00000
     20       6.9629      0.00000
     21       7.5539      0.00000
     22       7.6650      0.00000
     23       8.1370      0.00000
     24       8.6060      0.00000

 k-point    14 :       0.3421    0.0000    0.0000
  band No.  band energies     occupation 
      1     -44.0226      1.00000
      2     -44.0220      1.00000
      3     -44.0159      1.00000
      4     -39.6670      1.00000
      5     -39.6625      1.00000
      6     -39.6616      1.00000
      7      -5.1003      1.00000
      8      -4.4168      1.00000
      9       1.5551      1.00000
     10       1.9199      1.00000
     11       2.4415      1.00000
     12       2.8378      1.00000
     13       3.2992      1.00000
     14       3.4845      1.00000
     15       3.5071      1.00000
     16       3.9701      1.00000
     17       4.3663      1.00000
     18       5.5011      1.00000
     19       5.5332      1.00000
     20       6.9438      0.00000
     21       7.5673      0.00000
     22       7.6809      0.00000
     23       8.0756      0.00000
     24       8.6372      0.00000

 k-point    15 :       0.3684    0.0000    0.0000
  band No.  band energies     occupation 
      1     -44.0226      1.00000
      2     -44.0220      1.00000
      3     -44.0159      1.00000
      4     -39.6670      1.00000
      5     -39.6626      1.00000
      6     -39.6617      1.00000
      7      -5.0031      1.00000
      8      -4.4110      1.00000
      9       1.3582      1.00000
     10       2.0713      1.00000
     11       2.4101      1.00000
     12       2.8313      1.00000
     13       3.2177      1.00000
     14       3.4770      1.00000
     15       3.5157      1.00000
     16       3.9423      1.00000
     17       4.2763      1.00000
     18       5.3533      1.00000
     19       5.5209      1.00000
     20       6.9285      0.00000
     21       7.5802      0.00000
     22       7.6856      0.00000
     23       8.0054      0.00000
     24       8.6660      0.00000

 k-point    16 :       0.3947    0.0000    0.0000
  band No.  band energies     occupation 
      1     -44.0227      1.00000
      2     -44.0220      1.00000
      3     -44.0159      1.00000
      4     -39.6669      1.00000
      5     -39.6627      1.00000
      6     -39.6617      1.00000
      7      -4.9097      1.00000
      8      -4.4133      1.00000
      9       1.1875      1.00000
     10       2.2125      1.00000
     11       2.3929      1.00000
     12       2.8243      1.00000
     13       3.1377      1.00000
     14       3.4601      1.00000
     15       3.5524      1.00000
     16       3.9162      1.00000
     17       4.1916      1.00000
     18       5.2130      1.00000
     19       5.5104      1.00000
     20       6.9166      0.00000
     21       7.5922      0.00000
     22       7.6718      0.00000
     23       7.9495      0.00000
     24       8.6910      0.00000

 k-point    17 :       0.4211    0.0000    0.0000
  band No.  band energies     occupation 
      1     -44.0227      1.00000
      2     -44.0220      1.00000
      3     -44.0159      1.00000
      4     -39.6669      1.00000
      5     -39.6628      1.00000
      6     -39.6617      1.00000
      7      -4.8233      1.00000
      8      -4.4240      1.00000
      9       1.0494      1.00000
     10       2.2982      1.00000
     11       2.4261      1.00000
     12       2.8177      1.00000
     13       3.0689      1.00000
     14       3.4496      1.00000
     15       3.5926      1.00000
     16       3.8895      1.00000
     17       4.1143      1.00000
     18       5.0890      1.00000
     19       5.5021      1.00000
     20       6.9076      0.00000
     21       7.6026      0.00000
     22       7.6395      0.00000
     23       7.9198      0.00000
     24       8.7112      0.00000

 k-point    18 :       0.4474    0.0000    0.0000
  band No.  band energies     occupation 
      1     -44.0228      1.00000
      2     -44.0220      1.00000
      3     -44.0159      1.00000
      4     -39.6669      1.00000
      5     -39.6628      1.00000
      6     -39.6617      1.00000
      7      -4.7483      1.00000
      8      -4.4422      1.00000
      9       0.9478      1.00000
     10       2.3074      1.00000
     11       2.5200      1.00000
     12       2.8124      1.00000
     13       3.0155      1.00000
     14       3.4428      1.00000
     15       3.6325      1.00000
     16       3.8634      1.00000
     17       4.0479      1.00000
     18       4.9910      1.00000
     19       5.4961      1.00000
     20       6.9014      0.00000
     21       7.6021      0.00000
     22       7.6108      0.00000
     23       7.9099      0.00000
     24       8.7261      0.00000

 k-point    19 :       0.4737    0.0000    0.0000
  band No.  band energies     occupation 
      1     -44.0228      1.00000
      2     -44.0220      1.00000
      3     -44.0159      1.00000
      4     -39.6669      1.00000
      5     -39.6629      1.00000
      6     -39.6617      1.00000
      7      -4.6925      1.00000
      8      -4.4627      1.00000
      9       0.8857      1.00000
     10       2.3027      1.00000
     11       2.5977      1.00000
     12       2.8089      1.00000
     13       2.9805      1.00000
     14       3.4388      1.00000
     15       3.6651      1.00000
     16       3.8428      1.00000
     17       3.9995      1.00000
     18       4.9281      1.00000
     19       5.4924      1.00000
     20       6.8976      0.00000
     21       7.5744      0.00000
     22       7.6160      0.00000
     23       7.9083      0.00000
     24       8.7351      0.00000

 k-point    20 :       0.5000    0.0000    0.0000
  band No.  band energies     occupation 
      1     -44.0228      1.00000
      2     -44.0220      1.00000
      3     -44.0159      1.00000
      4     -39.6669      1.00000
      5     -39.6629      1.00000
      6     -39.6617      1.00000
      7      -4.6703      1.00000
      8      -4.4730      1.00000
      9       0.8648      1.00000
     10       2.3005      1.00000
     11       2.6271      1.00000
     12       2.8078      1.00000
     13       2.9678      1.00000
     14       3.4375      1.00000
     15       3.6784      1.00000
     16       3.8347      1.00000
     17       3.9809      1.00000
     18       4.9064      1.00000
     19       5.4912      1.00000
     20       6.8964      0.00000
     21       7.5644      0.00000
     22       7.6178      0.00000
     23       7.9084      0.00000
     24       8.7382      0.00000

 k-point    21 :       0.5000    0.0000    0.0000
  band No.  band energies     occupation 
      1     -44.0228      1.00000
      2     -44.0220      1.00000
      3     -44.0159      1.00000
      4     -39.6669      1.00000
      5     -39.6629      1.00000
      6     -39.6617      1.00000
      7      -4.6703      1.00000
      8      -4.4730      1.00000
      9       0.8648      1.00000
     10       2.3005      1.00000
     11       2.6271      1.00000
     12       2.8078      1.00000
     13       2.9678      1.00000
     14       3.4375      1.00000
     15       3.6784      1.00000
     16       3.8347      1.00000
     17       3.9809      1.00000
     18       4.9064      1.00000
     19       5.4912      1.00000
     20       6.8964      0.00000
     21       7.5644      0.00000
     22       7.6178      0.00000
     23       7.9084      0.00000
     24       8.7382      0.00000

 k-point    22 :       0.4912    0.0175    0.0000
  band No.  band energies     occupation 
      1     -44.0228      1.00000
      2     -44.0220      1.00000
      3     -44.0159      1.00000
      4     -39.6669      1.00000
      5     -39.6629      1.00000
      6     -39.6617      1.00000
      7      -4.6695      1.00000
      8      -4.4725      1.00000
      9       0.8662      1.00000
     10       2.2996      1.00000
     11       2.6284      1.00000
     12       2.8072      1.00000
     13       2.9701      1.00000
     14       3.4270      1.00000
     15       3.6803      1.00000
     16       3.8252      1.00000
     17       3.9903      1.00000
     18       4.9068      1.00000
     19       5.4854      1.00000
     20       6.9033      0.00000
     21       7.5637      0.00000
     22       7.6171      0.00000
     23       7.9084      0.00000
     24       8.7085      0.00000

 k-point    23 :       0.4825    0.0351    0.0000
  band No.  band energies     occupation 
      1     -44.0228      1.00000
      2     -44.0220      1.00000
      3     -44.0159      1.00000
      4     -39.6669      1.00000
      5     -39.6629      1.00000
      6     -39.6617      1.00000
      7      -4.6671      1.00000
      8      -4.4709      1.00000
      9       0.8703      1.00000
     10       2.2969      1.00000
     11       2.6322      1.00000
     12       2.8059      1.00000
     13       2.9768      1.00000
     14       3.3956      1.00000
     15       3.6857      1.00000
     16       3.8040      1.00000
     17       4.0119      1.00000
     18       4.9080      1.00000
     19       5.4681      1.00000
     20       6.9234      0.00000
     21       7.5617      0.00000
     22       7.6147      0.00000
     23       7.9084      0.00000
     24       8.6341      0.00000

 k-point    24 :       0.4737    0.0526    0.0000
  band No.  band energies     occupation 
      1     -44.0228      1.00000
      2     -44.0221      1.00000
      3     -44.0159      1.00000
      4     -39.6669      1.00000
      5     -39.6629      1.00000
      6     -39.6618      1.00000
      7      -4.6631      1.00000
      8      -4.4683      1.00000
      9       0.8771      1.00000
     10       2.2926      1.00000
     11       2.6386      1.00000
     12       2.8042      1.00000
     13       2.9871      1.00000
     14       3.3436      1.00000
     15       3.6949      1.00000
     16       3.7812      1.00000
     17       4.0366      1.00000
     18       4.9099      1.00000
     19       5.4397      1.00000
     20       6.9547      0.00000
     21       7.5586      0.00000
     22       7.6110      0.00000
     23       7.9084      0.00000
     24       8.5397      0.00000

 k-point    25 :       0.4649    0.0702    0.0000
  band No.  band energies     occupation 
      1     -44.0228      1.00000
      2     -44.0221      1.00000
      3     -44.0159      1.00000
      4     -39.6669      1.00000
      5     -39.6628      1.00000
      6     -39.6618      1.00000
      7      -4.6576      1.00000
      8      -4.4648      1.00000
      9       0.8865      1.00000
     10       2.2867      1.00000
     11       2.6474      1.00000
     12       2.8027      1.00000
     13       3.0003      1.00000
     14       3.2734      1.00000
     15       3.7076      1.00000
     16       3.7613      1.00000
     17       4.0600      1.00000
     18       4.9123      1.00000
     19       5.4008      1.00000
     20       6.9943      0.00000
     21       7.5547      0.00000
     22       7.6060      0.00000
     23       7.9083      0.00000
     24       8.4415      0.00000

 k-point    26 :       0.4561    0.0877    0.0000
  band No.  band energies     occupation 
      1     -44.0228      1.00000
      2     -44.0221      1.00000
      3     -44.0159      1.00000
      4     -39.6669      1.00000
      5     -39.6628      1.00000
      6     -39.6618      1.00000
      7      -4.6505      1.00000
      8      -4.4606      1.00000
      9       0.8982      1.00000
     10       2.2796      1.00000
     11       2.6585      1.00000
     12       2.8020      1.00000
     13       3.0154      1.00000
     14       3.1883      1.00000
     15       3.7239      1.00000
     16       3.7453      1.00000
     17       4.0808      1.00000
     18       4.9149      1.00000
     19       5.3525      1.00000
     20       7.0382      0.00000
     21       7.5508      0.00000
     22       7.6001      0.00000
     23       7.9081      0.00000
     24       8.3481      0.00000

 k-point    27 :       0.4474    0.1053    0.0000
  band No.  band energies     occupation 
      1     -44.0228      1.00000
      2     -44.0221      1.00000
      3     -44.0159      1.00000
      4     -39.6669      1.00000
      5     -39.6628      1.00000
      6     -39.6618      1.00000
      7      -4.6421      1.00000
      8      -4.4557      1.00000
      9       0.9121      1.00000
     10       2.2713      1.00000
     11       2.6716      1.00000
     12       2.8024      1.00000
     13       3.0318      1.00000
     14       3.0925      1.00000
     15       3.7325      1.00000
     16       3.7436      1.00000
     17       4.0985      1.00000
     18       4.9174      1.00000
     19       5.2959      1.00000
     20       7.0820      0.00000
     21       7.5480      0.00000
     22       7.5936      0.00000
     23       7.9077      0.00000
     24       8.2631      0.00000

 k-point    28 :       0.4386    0.1228    0.0000
  band No.  band energies     occupation 
      1     -44.0227      1.00000
      2     -44.0221      1.00000
      3     -44.0159      1.00000
      4     -39.6669      1.00000
      5     -39.6628      1.00000
      6     -39.6619      1.00000
      7      -4.6323      1.00000
      8      -4.4503      1.00000
      9       0.9279      1.00000
     10       2.2621      1.00000
     11       2.6865      1.00000
     12       2.8041      1.00000
     13       2.9901      1.00000
     14       3.0486      1.00000
     15       3.7219      1.00000
     16       3.7666      1.00000
     17       4.1135      1.00000
     18       4.9195      1.00000
     19       5.2327      1.00000
     20       7.1208      0.00000
     21       7.5480      0.00000
     22       7.5870      0.00000
     23       7.9071      0.00000
     24       8.1882      0.00000

 k-point    29 :       0.4298    0.1404    0.0000
  band No.  band energies     occupation 
      1     -44.0227      1.00000
      2     -44.0221      1.00000
      3     -44.0159      1.00000
      4     -39.6669      1.00000
      5     -39.6628      1.00000
      6     -39.6619      1.00000
      7      -4.6212      1.00000
      8      -4.4447      1.00000
      9       0.9451      1.00000
     10       2.2524      1.00000
     11       2.7023      1.00000
     12       2.8071      1.00000
     13       2.8849      1.00000
     14       3.0652      1.00000
     15       3.7127      1.00000
     16       3.7927      1.00000
     17       4.1259      1.00000
     18       4.9207      1.00000
     19       5.1648      1.00000
     20       7.1496      0.00000
     21       7.5531      0.00000
     22       7.5809      0.00000
     23       7.9060      0.00000
     24       8.1234      0.00000

 k-point    30 :       0.4211    0.1579    0.0000
  band No.  band energies     occupation 
      1     -44.0227      1.00000
      2     -44.0222      1.00000
      3     -44.0159      1.00000
      4     -39.6669      1.00000
      5     -39.6628      1.00000
      6     -39.6619      1.00000
      7      -4.6090      1.00000
      8      -4.4392      1.00000
      9       0.9633      1.00000
     10       2.2423      1.00000
     11       2.7150      1.00000
     12       2.7841      1.00000
     13       2.8115      1.00000
     14       3.0812      1.00000
     15       3.7043      1.00000
     16       3.8215      1.00000
     17       4.1361      1.00000
     18       4.9207      1.00000
     19       5.0941      1.00000
     20       7.1645      0.00000
     21       7.5650      0.00000
     22       7.5760      0.00000
     23       7.9043      0.00000
     24       8.0681      0.00000

 k-point    31 :       0.4123    0.1754    0.0000
  band No.  band energies     occupation 
      1     -44.0227      1.00000
      2     -44.0222      1.00000
      3     -44.0159      1.00000
      4     -39.6669      1.00000
      5     -39.6627      1.00000
      6     -39.6620      1.00000
      7      -4.5958      1.00000
      8      -4.4339      1.00000
      9       0.9819      1.00000
     10       2.2321      1.00000
     11       2.6642      1.00000
     12       2.7503      1.00000
     13       2.8171      1.00000
     14       3.0960      1.00000
     15       3.6965      1.00000
     16       3.8527      1.00000
     17       4.1443      1.00000
     18       4.9188      1.00000
     19       5.0231      1.00000
     20       7.1638      0.00000
     21       7.5729      0.00000
     22       7.5839      0.00000
     23       7.9016      0.00000
     24       8.0214      0.00000

 k-point    32 :       0.4035    0.1930    0.0000
  band No.  band energies     occupation 
      1     -44.0227      1.00000
      2     -44.0222      1.00000
      3     -44.0158      1.00000
      4     -39.6669      1.00000
      5     -39.6627      1.00000
      6     -39.6620      1.00000
      7      -4.5817      1.00000
      8      -4.4292      1.00000
      9       1.0004      1.00000
     10       2.2220      1.00000
     11       2.5687      1.00000
     12       2.7666      1.00000
     13       2.8237      1.00000
     14       3.1092      1.00000
     15       3.6890      1.00000
     16       3.8855      1.00000
     17       4.1506      1.00000
     18       4.9146      1.00000
     19       4.9542      1.00000
     20       7.1484      0.00000
     21       7.5722      0.00000
     22       7.6081      0.00000
     23       7.8975      0.00000
     24       7.9822      0.00000

 k-point    33 :       0.3947    0.2105    0.0000
  band No.  band energies     occupation 
      1     -44.0226      1.00000
      2     -44.0223      1.00000
      3     -44.0158      1.00000
      4     -39.6669      1.00000
      5     -39.6627      1.00000
      6     -39.6621      1.00000
      7      -4.5668      1.00000
      8      -4.4255      1.00000
      9       1.0178      1.00000
     10       2.2123      1.00000
     11       2.4775      1.00000
     12       2.7862      1.00000
     13       2.8313      1.00000
     14       3.1204      1.00000
     15       3.6818      1.00000
     16       3.9194      1.00000
     17       4.1551      1.00000
     18       4.8899      1.00000
     19       4.9073      1.00000
     20       7.1216      0.00000
     21       7.5743      0.00000
     22       7.6348      0.00000
     23       7.8912      0.00000
     24       7.9492      0.00000

 k-point    34 :       0.3860    0.2281    0.0000
  band No.  band energies     occupation 
      1     -44.0226      1.00000
      2     -44.0223      1.00000
      3     -44.0158      1.00000
      4     -39.6669      1.00000
      5     -39.6626      1.00000
      6     -39.6621      1.00000
      7      -4.5514      1.00000
      8      -4.4231      1.00000
      9       1.0335      1.00000
     10       2.2032      1.00000
     11       2.3950      1.00000
     12       2.8060      1.00000
     13       2.8394      1.00000
     14       3.1293      1.00000
     15       3.6749      1.00000
     16       3.9534      1.00000
     17       4.1578      1.00000
     18       4.8327      1.00000
     19       4.8964      1.00000
     20       7.0871      0.00000
     21       7.5797      0.00000
     22       7.6612      0.00000
     23       7.8822      0.00000
     24       7.9215      0.00000

 k-point    35 :       0.3772    0.2456    0.0000
  band No.  band energies     occupation 
      1     -44.0226      1.00000
      2     -44.0223      1.00000
      3     -44.0158      1.00000
      4     -39.6669      1.00000
      5     -39.6626      1.00000
      6     -39.6622      1.00000
      7      -4.5355      1.00000
      8      -4.4224      1.00000
      9       1.0467      1.00000
     10       2.1947      1.00000
     11       2.3235      1.00000
     12       2.8251      1.00000
     13       2.8478      1.00000
     14       3.1358      1.00000
     15       3.6683      1.00000
     16       3.9865      1.00000
     17       4.1584      1.00000
     18       4.7853      1.00000
     19       4.8814      1.00000
     20       7.0491      0.00000
     21       7.5885      0.00000
     22       7.6850      0.00000
     23       7.8697      0.00000
     24       7.8982      0.00000

 k-point    36 :       0.3684    0.2632    0.0000
  band No.  band energies     occupation 
      1     -44.0226      1.00000
      2     -44.0224      1.00000
      3     -44.0158      1.00000
      4     -39.6669      1.00000
      5     -39.6626      1.00000
      6     -39.6622      1.00000
      7      -4.5194      1.00000
      8      -4.4237      1.00000
      9       1.0567      1.00000
     10       2.1871      1.00000
     11       2.2646      1.00000
     12       2.8426      1.00000
     13       2.8561      1.00000
     14       3.1397      1.00000
     15       3.6622      1.00000
     16       4.0178      1.00000
     17       4.1565      1.00000
     18       4.7500      1.00000
     19       4.8622      1.00000
     20       7.0116      0.00000
     21       7.6008      0.00000
     22       7.7037      0.00000
     23       7.8545      0.00000
     24       7.8786      0.00000

 k-point    37 :       0.3596    0.2807    0.0000
  band No.  band energies     occupation 
      1     -44.0226      1.00000
      2     -44.0224      1.00000
      3     -44.0158      1.00000
      4     -39.6669      1.00000
      5     -39.6625      1.00000
      6     -39.6623      1.00000
      7      -4.5032      1.00000
      8      -4.4274      1.00000
      9       1.0633      1.00000
     10       2.1805      1.00000
     11       2.2196      1.00000
     12       2.8577      1.00000
     13       2.8638      1.00000
     14       3.1414      1.00000
     15       3.6568      1.00000
     16       4.0462      1.00000
     17       4.1519      1.00000
     18       4.7286      1.00000
     19       4.8388      1.00000
     20       6.9783      0.00000
     21       7.6165      0.00000
     22       7.7145      0.00000
     23       7.8397      0.00000
     24       7.8623      0.00000

 k-point    38 :       0.3509    0.2982    0.0000
  band No.  band energies     occupation 
      1     -44.0225      1.00000
      2     -44.0224      1.00000
      3     -44.0158      1.00000
      4     -39.6669      1.00000
      5     -39.6625      1.00000
      6     -39.6623      1.00000
      7      -4.4872      1.00000
      8      -4.4339      1.00000
      9       1.0667      1.00000
     10       2.1750      1.00000
     11       2.1887      1.00000
     12       2.8693      1.00000
     13       2.8704      1.00000
     14       3.1414      1.00000
     15       3.6526      1.00000
     16       4.0714      1.00000
     17       4.1437      1.00000
     18       4.7222      1.00000
     19       4.8120      1.00000
     20       6.9522      0.00000
     21       7.6354      0.00000
     22       7.7137      0.00000
     23       7.8300      0.00000
     24       7.8488      0.00000

 k-point    39 :       0.3421    0.3158    0.0000
  band No.  band energies     occupation 
      1     -44.0225      1.00000
      2     -44.0225      1.00000
      3     -44.0158      1.00000
      4     -39.6669      1.00000
      5     -39.6625      1.00000
      6     -39.6624      1.00000
      7      -4.4716      1.00000
      8      -4.4435      1.00000
      9       1.0677      1.00000
     10       2.1707      1.00000
     11       2.1718      1.00000
     12       2.8754      1.00000
     13       2.8765      1.00000
     14       3.1406      1.00000
     15       3.6497      1.00000
     16       4.0938      1.00000
     17       4.1314      1.00000
     18       4.7309      1.00000
     19       4.7830      1.00000
     20       6.9355      0.00000
     21       7.6569      0.00000
     22       7.7009      0.00000
     23       7.8281      0.00000
     24       7.8384      0.00000

 k-point    40 :       0.3333    0.3333    0.0000
  band No.  band energies     occupation 
      1     -44.0225      1.00000
      2     -44.0225      1.00000
      3     -44.0158      1.00000
      4     -39.6669      1.00000
      5     -39.6624      1.00000
      6     -39.6624      1.00000
      7      -4.4565      1.00000
      8      -4.4565      1.00000
      9       1.0677      1.00000
     10       2.1679      1.00000
     11       2.1679      1.00000
     12       2.8782      1.00000
     13       2.8782      1.00000
     14       3.1400      1.00000
     15       3.6487      1.00000
     16       4.1142      1.00000
     17       4.1142      1.00000
     18       4.7535      1.00000
     19       4.7535      1.00000
     20       6.9298      0.00000
     21       7.6800      0.00000
     22       7.6800      0.00000
     23       7.8315      0.00000
     24       7.8315      0.00000

 k-point    41 :       0.3333    0.3333    0.0000
  band No.  band energies     occupation 
      1     -44.0225      1.00000
      2     -44.0225      1.00000
      3     -44.0158      1.00000
      4     -39.6669      1.00000
      5     -39.6624      1.00000
      6     -39.6624      1.00000
      7      -4.4565      1.00000
      8      -4.4565      1.00000
      9       1.0677      1.00000
     10       2.1679      1.00000
     11       2.1679      1.00000
     12       2.8782      1.00000
     13       2.8782      1.00000
     14       3.1400      1.00000
     15       3.6487      1.00000
     16       4.1142      1.00000
     17       4.1142      1.00000
     18       4.7535      1.00000
     19       4.7535      1.00000
     20       6.9298      0.00000
     21       7.6800      0.00000
     22       7.6800      0.00000
     23       7.8315      0.00000
     24       7.8315      0.00000

 k-point    42 :       0.3158    0.3158    0.0000
  band No.  band energies     occupation 
      1     -44.0225      1.00000
      2     -44.0224      1.00000
      3     -44.0158      1.00000
      4     -39.6669      1.00000
      5     -39.6625      1.00000
      6     -39.6623      1.00000
      7      -4.4936      1.00000
      8      -4.4286      1.00000
      9       1.0714      1.00000
     10       2.1668      1.00000
     11       2.1928      1.00000
     12       2.8606      1.00000
     13       2.8759      1.00000
     14       3.1443      1.00000
     15       3.6535      1.00000
     16       4.0631      1.00000
     17       4.1546      1.00000
     18       4.7013      1.00000
     19       4.8332      1.00000
     20       6.9527      0.00000
     21       7.6299      0.00000
     22       7.7216      0.00000
     23       7.8357      0.00000
     24       7.8419      0.00000

 k-point    43 :       0.2982    0.2982    0.0000
  band No.  band energies     occupation 
      1     -44.0226      1.00000
      2     -44.0224      1.00000
      3     -44.0158      1.00000
      4     -39.6669      1.00000
      5     -39.6625      1.00000
      6     -39.6622      1.00000
      7      -4.5465      1.00000
      8      -4.4052      1.00000
      9       1.0919      1.00000
     10       2.1726      1.00000
     11       2.2489      1.00000
     12       2.8098      1.00000
     13       2.8656      1.00000
     14       3.1603      1.00000
     15       3.6687      1.00000
     16       3.9911      1.00000
     17       4.2019      1.00000
     18       4.6693      1.00000
     19       4.9455      1.00000
     20       7.0170      0.00000
     21       7.5812      0.00000
     22       7.7369      0.00000
     23       7.8491      0.00000
     24       7.8808      0.00000

 k-point    44 :       0.2807    0.2807    0.0000
  band No.  band energies     occupation 
      1     -44.0226      1.00000
      2     -44.0223      1.00000
      3     -44.0159      1.00000
      4     -39.6669      1.00000
      5     -39.6626      1.00000
      6     -39.6621      1.00000
      7      -4.6153      1.00000
      8      -4.3876      1.00000
      9       1.1402      1.00000
     10       2.1862      1.00000
     11       2.3207      1.00000
     12       2.7249      1.00000
     13       2.8551      1.00000
     14       3.1885      1.00000
     15       3.6936      1.00000
     16       3.9074      1.00000
     17       4.2604      1.00000
     18       4.6631      1.00000
     19       5.0784      1.00000
     20       7.1090      0.00000
     21       7.5422      0.00000
     22       7.7307      0.00000
     23       7.8507      0.00000
     24       7.9572      0.00000

 k-point    45 :       0.2632    0.2632    0.0000
  band No.  band energies     occupation 
      1     -44.0226      1.00000
      2     -44.0222      1.00000
      3     -44.0159      1.00000
      4     -39.6669      1.00000
      5     -39.6626      1.00000
      6     -39.6621      1.00000
      7      -4.6988      1.00000
      8      -4.3768      1.00000
      9       1.2231      1.00000
     10       2.2085      1.00000
     11       2.3856      1.00000
     12       2.6199      1.00000
     13       2.8533      1.00000
     14       3.2265      1.00000
     15       3.7253      1.00000
     16       3.8243      1.00000
     17       4.3308      1.00000
     18       4.6815      1.00000
     19       5.2238      1.00000
     20       7.2032      0.00000
     21       7.5249      0.00000
     22       7.7160      0.00000
     23       7.8461      0.00000
     24       8.0459      0.00000

 k-point    46 :       0.2456    0.2456    0.0000
  band No.  band energies     occupation 
      1     -44.0226      1.00000
      2     -44.0222      1.00000
      3     -44.0159      1.00000
      4     -39.6669      1.00000
      5     -39.6626      1.00000
      6     -39.6620      1.00000
      7      -4.7948      1.00000
      8      -4.3733      1.00000
      9       1.3432      1.00000
     10       2.2394      1.00000
     11       2.3646      1.00000
     12       2.5729      1.00000
     13       2.8669      1.00000
     14       3.2727      1.00000
     15       3.7416      1.00000
     16       3.7682      1.00000
     17       4.4120      1.00000
     18       4.7211      1.00000
     19       5.3760      1.00000
     20       7.2626      0.00000
     21       7.5483      0.00000
     22       7.6956      0.00000
     23       7.8358      0.00000
     24       8.1365      0.00000

 k-point    47 :       0.2281    0.2281    0.0000
  band No.  band energies     occupation 
      1     -44.0226      1.00000
      2     -44.0221      1.00000
      3     -44.0159      1.00000
      4     -39.6669      1.00000
      5     -39.6626      1.00000
      6     -39.6619      1.00000
      7      -4.9004      1.00000
      8      -4.3774      1.00000
      9       1.4999      1.00000
     10       2.2229      1.00000
     11       2.2785      1.00000
     12       2.6223      1.00000
     13       2.8994      1.00000
     14       3.3270      1.00000
     15       3.6818      1.00000
     16       3.8001      1.00000
     17       4.5027      1.00000
     18       4.7786      1.00000
     19       5.5311      1.00000
     20       7.2752      0.00000
     21       7.6072      0.00000
     22       7.6692      0.00000
     23       7.8216      0.00000
     24       8.2204      0.00000

 k-point    48 :       0.2105    0.2105    0.0000
  band No.  band energies     occupation 
      1     -44.0225      1.00000
      2     -44.0221      1.00000
      3     -44.0159      1.00000
      4     -39.6669      1.00000
      5     -39.6625      1.00000
      6     -39.6618      1.00000
      7      -5.0123      1.00000
      8      -4.3886      1.00000
      9       1.6905      1.00000
     10       2.0485      1.00000
     11       2.3243      1.00000
     12       2.6854      1.00000
     13       2.9514      1.00000
     14       3.3909      1.00000
     15       3.6290      1.00000
     16       3.8357      1.00000
     17       4.6017      1.00000
     18       4.8501      1.00000
     19       5.6850      1.00000
     20       7.2667      0.00000
     21       7.6359      0.00000
     22       7.6651      0.00000
     23       7.8098      0.00000
     24       8.2882      0.00000

 k-point    49 :       0.1930    0.1930    0.0000
  band No.  band energies     occupation 
      1     -44.0225      1.00000
      2     -44.0220      1.00000
      3     -44.0159      1.00000
      4     -39.6670      1.00000
      5     -39.6624      1.00000
      6     -39.6617      1.00000
      7      -5.1271      1.00000
      8      -4.4063      1.00000
      9       1.8558      1.00000
     10       1.9227      1.00000
     11       2.3745      1.00000
     12       2.7407      1.00000
     13       3.0202      1.00000
     14       3.4683      1.00000
     15       3.5865      1.00000
     16       3.8714      1.00000
     17       4.7079      1.00000
     18       4.9308      1.00000
     19       5.8341      1.00000
     20       7.2556      0.00000
     21       7.5953      0.00000
     22       7.6934      0.00000
     23       7.8182      0.00000
     24       8.3310      0.00000

 k-point    50 :       0.1754    0.1754    0.0000
  band No.  band energies     occupation 
      1     -44.0224      1.00000
      2     -44.0220      1.00000
      3     -44.0159      1.00000
      4     -39.6670      1.00000
      5     -39.6623      1.00000
      6     -39.6617      1.00000
      7      -5.2416      1.00000
      8      -4.4293      1.00000
      9       1.6852      1.00000
     10       2.1590      1.00000
     11       2.4272      1.00000
     12       2.7843      1.00000
     13       3.0989      1.00000
     14       3.5534      1.00000
     15       3.5654      1.00000
     16       3.9099      1.00000
     17       4.8206      1.00000
     18       5.0149      1.00000
     19       5.9740      1.00000
     20       7.2492      0.00000
     21       7.5480      0.00000
     22       7.6843      0.00000
     23       7.8592      0.00000
     24       8.3427      0.00000

 k-point    51 :       0.1579    0.1579    0.0000
  band No.  band energies     occupation 
      1     -44.0223      1.00000
      2     -44.0219      1.00000
      3     -44.0160      1.00000
      4     -39.6670      1.00000
      5     -39.6622      1.00000
      6     -39.6616      1.00000
      7      -5.3530      1.00000
      8      -4.4562      1.00000
      9       1.5150      1.00000
     10       2.4159      1.00000
     11       2.4805      1.00000
     12       2.8169      1.00000
     13       3.1783      1.00000
     14       3.5290      1.00000
     15       3.6891      1.00000
     16       3.9571      1.00000
     17       4.9388      1.00000
     18       5.0965      1.00000
     19       6.0994      1.00000
     20       7.2491      0.00000
     21       7.4963      0.00000
     22       7.6575      0.00000
     23       7.9212      0.00000
     24       8.3228      0.00000

 k-point    52 :       0.1404    0.1404    0.0000
  band No.  band energies     occupation 
      1     -44.0222      1.00000
      2     -44.0219      1.00000
      3     -44.0160      1.00000
      4     -39.6671      1.00000
      5     -39.6620      1.00000
      6     -39.6615      1.00000
      7      -5.4585      1.00000
      8      -4.4855      1.00000
      9       1.3564      1.00000
     10       2.5331      1.00000
     11       2.6632      1.00000
     12       2.8495      1.00000
     13       3.2503      1.00000
     14       3.5118      1.00000
     15       3.8436      1.00000
     16       4.0236      1.00000
     17       5.0612      1.00000
     18       5.1702      1.00000
     19       6.2037      1.00000
     20       7.2540      0.00000
     21       7.4441      0.00000
     22       7.6252      0.00000
     23       7.9983      0.00000
     24       8.2783      0.00000

 k-point    53 :       0.1228    0.1228    0.0000
  band No.  band energies     occupation 
      1     -44.0221      1.00000
      2     -44.0218      1.00000
      3     -44.0160      1.00000
      4     -39.6671      1.00000
      5     -39.6619      1.00000
      6     -39.6615      1.00000
      7      -5.5561      1.00000
      8      -4.5156      1.00000
      9       1.2122      1.00000
     10       2.5840      1.00000
     11       2.7971      1.00000
     12       2.9678      1.00000
     13       3.3115      1.00000
     14       3.5005      1.00000
     15       4.0272      1.00000
     16       4.1260      1.00000
     17       5.1862      1.00000
     18       5.2330      1.00000
     19       6.2789      1.00000
     20       7.2615      0.00000
     21       7.3967      0.00000
     22       7.5915      0.00000
     23       8.0893      0.00000
     24       8.2227      0.00000

 k-point    54 :       0.1053    0.1053    0.0000
  band No.  band energies     occupation 
      1     -44.0221      1.00000
      2     -44.0218      1.00000
      3     -44.0160      1.00000
      4     -39.6671      1.00000
      5     -39.6618      1.00000
      6     -39.6614      1.00000
      7      -5.6439      1.00000
      8      -4.5451      1.00000
      9       1.0843      1.00000
     10       2.6319      1.00000
     11       2.8144      1.00000
     12       3.1529      1.00000
     13       3.3619      1.00000
     14       3.4937      1.00000
     15       4.2331      1.00000
     16       4.2845      1.00000
     17       5.2839      1.00000
     18       5.3114      1.00000
     19       6.3167      1.00000
     20       7.2689      0.00000
     21       7.3580      0.00000
     22       7.5585      0.00000
     23       8.1740      0.00000
     24       8.1909      0.00000

 k-point    55 :       0.0877    0.0877    0.0000
  band No.  band energies     occupation 
      1     -44.0220      1.00000
      2     -44.0218      1.00000
      3     -44.0160      1.00000
      4     -39.6672      1.00000
      5     -39.6617      1.00000
      6     -39.6614      1.00000
      7      -5.7205      1.00000
      8      -4.5724      1.00000
      9       0.9742      1.00000
     10       2.6757      1.00000
     11       2.8134      1.00000
     12       3.2934      1.00000
     13       3.4028      1.00000
     14       3.4898      1.00000
     15       4.4526      1.00000
     16       4.5081      1.00000
     17       5.3247      1.00000
     18       5.4329      1.00000
     19       6.3120      1.00000
     20       7.2738      0.00000
     21       7.3283      0.00000
     22       7.5268      0.00000
     23       8.1525      0.00000
     24       8.2966      0.00000

 k-point    56 :       0.0702    0.0702    0.0000
  band No.  band energies     occupation 
      1     -44.0219      1.00000
      2     -44.0218      1.00000
      3     -44.0160      1.00000
      4     -39.6672      1.00000
      5     -39.6615      1.00000
      6     -39.6613      1.00000
      7      -5.7847      1.00000
      8      -4.5965      1.00000
      9       0.8828      1.00000
     10       2.7142      1.00000
     11       2.8077      1.00000
     12       3.3827      1.00000
     13       3.4354      1.00000
     14       3.4880      1.00000
     15       4.6762      1.00000
     16       4.7798      1.00000
     17       5.3608      1.00000
     18       5.5457      1.00000
     19       6.2660      1.00000
     20       7.2752      0.00000
     21       7.3032      0.00000
     22       7.4962      0.00000
     23       8.1763      0.00000
     24       8.3979      0.00000

 k-point    57 :       0.0526    0.0526    0.0000
  band No.  band energies     occupation 
      1     -44.0218      1.00000
      2     -44.0217      1.00000
      3     -44.0161      1.00000
      4     -39.6672      1.00000
      5     -39.6614      1.00000
      6     -39.6613      1.00000
      7      -5.8354      1.00000
      8      -4.6164      1.00000
      9       0.8111      1.00000
     10       2.7458      1.00000
     11       2.8008      1.00000
     12       3.4352      1.00000
     13       3.4603      1.00000
     14       3.4874      1.00000
     15       4.8934      1.00000
     16       5.0540      1.00000
     17       5.4094      1.00000
     18       5.6427      1.00000
     19       6.1870      1.00000
     20       7.2717      0.00000
     21       7.2793      0.00000
     22       7.4660      0.00000
     23       8.2543      0.00000
     24       8.4859      0.00000

 k-point    58 :       0.0351    0.0351    0.0000
  band No.  band energies     occupation 
      1     -44.0218      1.00000
      2     -44.0217      1.00000
      3     -44.0161      1.00000
      4     -39.6672      1.00000
      5     -39.6614      1.00000
      6     -39.6613      1.00000
      7      -5.8722      1.00000
      8      -4.6311      1.00000
      9       0.7595      1.00000
     10       2.7695      1.00000
     11       2.7947      1.00000
     12       3.4639      1.00000
     13       3.4780      1.00000
     14       3.4881      1.00000
     15       5.0909      1.00000
     16       5.2381      1.00000
     17       5.5253      1.00000
     18       5.7161      1.00000
     19       6.0897      1.00000
     20       7.2578      0.00000
     21       7.2620      0.00000
     22       7.4362      0.00000
     23       8.3816      0.00000
     24       8.5530      0.00000

 k-point    59 :       0.0175    0.0175    0.0000
  band No.  band energies     occupation 
      1     -44.0217      1.00000
      2     -44.0217      1.00000
      3     -44.0161      1.00000
      4     -39.6672      1.00000
      5     -39.6613      1.00000
      6     -39.6613      1.00000
      7      -5.8944      1.00000
      8      -4.6402      1.00000
      9       0.7284      1.00000
     10       2.7842      1.00000
     11       2.7906      1.00000
     12       3.4766      1.00000
     13       3.4885      1.00000
     14       3.4903      1.00000
     15       5.2450      1.00000
     16       5.2970      1.00000
     17       5.6922      1.00000
     18       5.7575      1.00000
     19       6.0006      1.00000
     20       7.2428      0.00000
     21       7.2466      0.00000
     22       7.4116      0.00000
     23       8.5316      0.00000
     24       8.5859      0.00000

 k-point    60 :      -0.0000   -0.0000    0.0000
  band No.  band energies     occupation 
      1     -44.0217      1.00000
      2     -44.0217      1.00000
      3     -44.0161      1.00000
      4     -39.6672      1.00000
      5     -39.6613      1.00000
      6     -39.6613      1.00000
      7      -5.9019      1.00000
      8      -4.6432      1.00000
      9       0.7180      1.00000
     10       2.7892      1.00000
     11       2.7892      1.00000
     12       3.4795      1.00000
     13       3.4921      1.00000
     14       3.4921      1.00000
     15       5.3089      1.00000
     16       5.3089      1.00000
     17       5.7673      1.00000
     18       5.7673      1.00000
     19       5.9628      1.00000
     20       7.2375      0.00000
     21       7.2375      0.00000
     22       7.4018      0.00000
     23       8.5326      0.00000
     24       8.6160      0.00000


--------------------------------------------------------------------------------------------------------


 soft charge-density along one line, spin component           1
         0         1         2         3         4         5         6         7         8         9
 total charge-density along one line
 
 soft charge-density along one line, spin component           2
         0         1         2         3         4         5         6         7         8         9
 total charge-density along one line
 
 pseudopotential strength for first ion, spin component:           1
-44.082  -0.000  -0.000   8.630   0.000   0.000   0.000   0.000
 -0.000 -44.075  -0.000   0.000   8.629   0.000  -0.000   0.000
 -0.000  -0.000 -44.082   0.000   0.000   8.630   0.000  -0.000
  8.630   0.000   0.000   4.945  -0.000  -0.000  -0.000  -0.000
  0.000   8.629   0.000  -0.000   4.946  -0.000   0.000  -0.000
  0.000   0.000   8.630  -0.000  -0.000   4.945  -0.000   0.000
  0.000  -0.000   0.000  -0.000   0.000  -0.000  -4.487  -0.000
  0.000   0.000  -0.000  -0.000  -0.000   0.000  -0.000  -4.470
 -0.000   0.000  -0.000   0.000  -0.000   0.000   0.000  -0.000
 -0.000   0.000   0.000   0.000  -0.000  -0.000  -0.018   0.000
 -0.000  -0.000   0.000   0.000   0.000  -0.000   0.000  -0.018
  0.000  -0.000   0.000  -0.000   0.000  -0.000  -4.955  -0.000
  0.000   0.000  -0.000  -0.000  -0.000   0.000  -0.000  -4.938
 -0.000   0.000  -0.000   0.000  -0.000   0.000   0.000  -0.000
 -0.000   0.000   0.000   0.000  -0.000  -0.000  -0.018   0.000
 -0.000  -0.000   0.000   0.000   0.000  -0.000   0.000  -0.018
 -0.000  -0.000  -0.000  -0.000  -0.000  -0.000   0.000   0.000
 -0.000  -0.000  -0.000  -0.000  -0.000  -0.000   0.000   0.000
 pseudopotential strength for first ion, spin component:           2
-41.147  -0.000   0.000   7.293   0.000  -0.000   0.000   0.000
 -0.000 -41.145  -0.000   0.000   7.294   0.000  -0.000   0.000
  0.000  -0.000 -41.147  -0.000   0.000   7.293   0.000  -0.000
  7.293   0.000  -0.000   5.405  -0.000   0.000  -0.000  -0.000
  0.000   7.294   0.000  -0.000   5.406  -0.000   0.000  -0.000
 -0.000   0.000   7.293   0.000  -0.000   5.405  -0.000   0.000
  0.000  -0.000   0.000  -0.000   0.000  -0.000  -1.813  -0.000
  0.000   0.000  -0.000  -0.000  -0.000   0.000  -0.000  -1.841
 -0.000   0.000  -0.000   0.000  -0.000   0.000  -0.000  -0.000
 -0.000   0.000   0.000   0.000  -0.000  -0.000   0.037   0.000
 -0.000  -0.000   0.000   0.000   0.000  -0.000  -0.000   0.037
  0.000  -0.000   0.000  -0.000   0.000  -0.000  -2.317  -0.000
  0.000   0.000  -0.000  -0.000  -0.000   0.000  -0.000  -2.345
 -0.000   0.000  -0.000   0.000  -0.000   0.000  -0.000  -0.000
 -0.000   0.000   0.000   0.000  -0.000  -0.000   0.038   0.000
 -0.000  -0.000   0.000   0.000   0.000  -0.000  -0.000   0.038
 -0.000  -0.000  -0.000  -0.000  -0.000  -0.000  -0.000   0.000
 -0.000  -0.000  -0.000  -0.000  -0.000  -0.000  -0.000   0.000
 total augmentation occupancy for first ion, spin component:           1
  2.000   0.000   0.000   0.000   0.000   0.000   0.000   0.000   0.000   0.000   0.000   0.000   0.000   0.000   0.000   0.000
  0.000   2.000   0.000   0.000   0.000   0.000   0.000   0.000   0.000   0.000   0.000   0.000   0.000   0.000   0.000   0.000
  0.000   0.000   2.000   0.000   0.000   0.000   0.000   0.000   0.000   0.000   0.000   0.000   0.000   0.000   0.000   0.000
  0.000   0.000   0.000   0.000   0.000   0.000   0.000   0.000   0.000   0.000   0.000   0.000   0.000   0.000   0.000   0.000
  0.000   0.000   0.000   0.000   0.000   0.000   0.000   0.000   0.000   0.000   0.000   0.000   0.000   0.000   0.000   0.000
  0.000   0.000   0.000   0.000   0.000   0.000   0.000   0.000   0.000   0.000   0.000   0.000   0.000   0.000   0.000   0.000
  0.000   0.000   0.000   0.000   0.000   0.000   1.200   0.000   0.000   0.000   0.000   0.000   0.000   0.000   0.000   0.000
  0.000   0.000   0.000   0.000   0.000   0.000   0.000   1.200   0.000   0.000   0.000   0.000   0.000   0.000   0.000   0.000
  0.000   0.000   0.000   0.000   0.000   0.000   0.000   0.000   1.200   0.000   0.000   0.000   0.000   0.000   0.000   0.000
  0.000   0.000   0.000   0.000   0.000   0.000   0.000   0.000   0.000   1.200   0.000   0.000   0.000   0.000   0.000   0.000
  0.000   0.000   0.000   0.000   0.000   0.000   0.000   0.000   0.000   0.000   1.200   0.000   0.000   0.000   0.000   0.000
  0.000   0.000   0.000   0.000   0.000   0.000   0.000   0.000   0.000   0.000   0.000   0.000   0.000   0.000   0.000   0.000
  0.000   0.000   0.000   0.000   0.000   0.000   0.000   0.000   0.000   0.000   0.000   0.000   0.000   0.000   0.000   0.000
  0.000   0.000   0.000   0.000   0.000   0.000   0.000   0.000   0.000   0.000   0.000   0.000   0.000   0.000   0.000   0.000
  0.000   0.000   0.000   0.000   0.000   0.000   0.000   0.000   0.000   0.000   0.000   0.000   0.000   0.000   0.000   0.000
  0.000   0.000   0.000   0.000   0.000   0.000   0.000   0.000   0.000   0.000   0.000   0.000   0.000   0.000   0.000   0.000
  0.000   0.000   0.000   0.000   0.000   0.000   0.000   0.000   0.000   0.000   0.000   0.000   0.000   0.000   0.000   0.000
  0.000   0.000   0.000   0.000   0.000   0.000   0.000   0.000   0.000   0.000   0.000   0.000   0.000   0.000   0.000   0.000
 total augmentation occupancy for first ion, spin component:           2
  0.694   0.000   0.000   0.000   0.000   0.000   0.000   0.000   0.000   0.000   0.000   0.000   0.000   0.000   0.000   0.000
  0.000   0.694   0.000   0.000   0.000   0.000   0.000   0.000   0.000   0.000   0.000   0.000   0.000   0.000   0.000   0.000
  0.000   0.000   0.694   0.000   0.000   0.000   0.000   0.000   0.000   0.000   0.000   0.000   0.000   0.000   0.000   0.000
  0.000   0.000   0.000   0.000   0.000   0.000   0.000   0.000   0.000   0.000   0.000   0.000   0.000   0.000   0.000   0.000
  0.000   0.000   0.000   0.000   0.000   0.000   0.000   0.000   0.000   0.000   0.000   0.000   0.000   0.000   0.000   0.000
  0.000   0.000   0.000   0.000   0.000   0.000   0.000   0.000   0.000   0.000   0.000   0.000   0.000   0.000   0.000   0.000
  0.000   0.000   0.000   0.000   0.000   0.000   0.416   0.000   0.000   0.000   0.000   0.000   0.000   0.000   0.000   0.000
  0.000   0.000   0.000   0.000   0.000   0.000   0.000   0.416   0.000   0.000   0.000   0.000   0.000   0.000   0.000   0.000
  0.000   0.000   0.000   0.000   0.000   0.000   0.000   0.000   0.416   0.000   0.000   0.000   0.000   0.000   0.000   0.000
  0.000   0.000   0.000   0.000   0.000   0.000   0.000   0.000   0.000   0.416   0.000   0.000   0.000   0.000   0.000   0.000
  0.000   0.000   0.000   0.000   0.000   0.000   0.000   0.000   0.000   0.000   0.416   0.000   0.000   0.000   0.000   0.000
  0.000   0.000   0.000   0.000   0.000   0.000   0.000   0.000   0.000   0.000   0.000   0.000   0.000   0.000   0.000   0.000
  0.000   0.000   0.000   0.000   0.000   0.000   0.000   0.000   0.000   0.000   0.000   0.000   0.000   0.000   0.000   0.000
  0.000   0.000   0.000   0.000   0.000   0.000   0.000   0.000   0.000   0.000   0.000   0.000   0.000   0.000   0.000   0.000
  0.000   0.000   0.000   0.000   0.000   0.000   0.000   0.000   0.000   0.000   0.000   0.000   0.000   0.000   0.000   0.000
  0.000   0.000   0.000   0.000   0.000   0.000   0.000   0.000   0.000   0.000   0.000   0.000   0.000   0.000   0.000   0.000
  0.000   0.000   0.000   0.000   0.000   0.000   0.000   0.000   0.000   0.000   0.000   0.000   0.000   0.000   0.000   0.000
  0.000   0.000   0.000   0.000   0.000   0.000   0.000   0.000   0.000   0.000   0.000   0.000   0.000   0.000   0.000   0.000


------------------------ aborting loop because EDIFF is reached ----------------------------------------


    CHARGE:  cpu time      0.8115: real time      0.8115
    FORLOC:  cpu time      0.0032: real time      0.0108
    FORNL :  cpu time      1.8602: real time      1.8606
    STRESS:  cpu time      6.4694: real time      6.4694
    FORCOR:  cpu time      0.1127: real time      0.1137
    FORHAR:  cpu time      0.0126: real time      0.0133
    OFIELD:  cpu time      0.0005: real time      0.0013

  FORCE on cell =-STRESS in cart. coord.  units (eV):
  Direction    XX          YY          ZZ          XY          YZ          ZX
  --------------------------------------------------------------------------------------
  Alpha Z    73.61798    73.61798    73.61798
  Ewald    -976.91608  -976.91502  -748.65324    -0.00000    -0.00000    -0.00000
  Hartree   443.47751   443.47749   607.52849     0.00000    -0.00000    -0.00000
  E(xc)    -204.81323  -204.81323  -204.74207     0.00000    -0.00000    -0.00000
  Local      -1.74259    -1.74252  -390.58369    -0.00011    -0.00000    -0.00000
  n-local   139.68386   140.94820   140.45066    -2.62476    -0.00001    -0.00000
  augment   143.42533   143.42506   142.52032     0.00013    -0.00000    -0.00000
  Kinetic   376.53320   379.19412   374.28943    -2.36392     0.00001    -0.00000
  Fock        0.00000     0.00000     0.00000     0.00000     0.00000     0.00000
  -------------------------------------------------------------------------------------
  Total      -4.77098    -4.77097    -5.57212     0.00000     0.00000    -0.00000
  in kB     -76.26457   -76.26434   -89.07084     0.00000     0.00000    -0.00000
  external pressure =      -80.53 kB  Pullay stress =        0.00 kB


 VOLUME and BASIS-vectors are now :
 -----------------------------------------------------------------------------
  energy-cutoff  :      500.00
  volume of cell :      100.23
      direct lattice vectors                 reciprocal lattice vectors
     4.150000000  0.000000000  0.000000000     0.240963855  0.139120757  0.000000000
    -2.075000000  3.594000000  0.000000000     0.000000000  0.278241514  0.000000000
     0.000000000  0.000000000  6.720000000     0.000000000  0.000000000  0.148809524

  length of vectors
     4.150000000  4.149995301  6.720000000     0.278241199  0.278241514  0.148809524


 FORCES acting on ions
    electron-ion (+dipol)            ewald-force                    non-local-force                 convergence-correction
 -----------------------------------------------------------------------------------------------
   -.340E-13 -.353E-13 0.631E-13   -.356E-14 0.439E-14 -.284E-13   -.461E-25 0.182E-24 0.382E-25   -.249E-12 0.602E-13 0.759E-12
   -.341E-13 -.331E-13 0.291E-12   -.252E-14 0.877E-14 0.000E+00   -.119E-24 -.865E-25 0.132E-24   0.312E-12 0.210E-12 -.285E-12
   0.616E-06 -.319E-03 -.493E-12   0.212E-06 0.337E-03 -.472E-14   -.778E-18 0.138E-17 -.121E-22   0.834E-04 -.464E-04 0.642E-10
   -.616E-06 0.319E-03 -.503E-13   -.212E-06 -.337E-03 0.473E-14   0.299E-17 -.185E-17 0.121E-22   -.834E-04 0.464E-04 -.645E-10
 -----------------------------------------------------------------------------------------------
   0.185E-12 -.246E-12 -.189E-12   -.507E-14 0.861E-14 -.284E-13   0.221E-17 -.472E-18 0.170E-24   0.958E-13 0.260E-12 0.129E-12
 
 
 POSITION                                       TOTAL-FORCE (eV/Angst)
 -----------------------------------------------------------------------------------
      0.00000      0.00000      0.00000        -0.000000      0.000000      0.000000
      0.00000      0.00000      3.36000        -0.000000      0.000000      0.000000
     -0.00000      2.39600      1.68000         0.000000     -0.000000     -0.000000
      2.07500      1.19800      5.04000        -0.000000      0.000000     -0.000000
 -----------------------------------------------------------------------------------
    total drift:                                0.000000      0.000000     -0.000000


--------------------------------------------------------------------------------------------------------



  FREE ENERGIE OF THE ION-ELECTRON SYSTEM (eV)
  ---------------------------------------------------
  free  energy   TOTEN  =       -24.43042362 eV

  energy  without entropy=      -24.43042362  energy(sigma->0) =      -24.43042362
 


--------------------------------------------------------------------------------------------------------


    POTLOK:  cpu time      1.2700: real time      1.3030


--------------------------------------------------------------------------------------------------------


     LOOP+:  cpu time     74.9333: real time     75.9289
    4ORBIT:  cpu time      0.0000: real time      0.0000

 total amount of memory used by VASP MPI-rank0   112709. kBytes
=======================================================================

   base      :      30000. kBytes
   nonl-proj :      44747. kBytes
   fftplans  :       9012. kBytes
   grid      :       8505. kBytes
   one-center:        124. kBytes
   wavefun   :      20321. kBytes
 
  
  
 General timing and accounting informations for this job:
 ========================================================
  
                  Total CPU time used (sec):       77.660
                            User time (sec):       71.048
                          System time (sec):        6.612
                         Elapsed time (sec):       82.638
  
                   Maximum memory used (kb):      237236.
                   Average memory used (kb):          N/A
  
                          Minor page faults:        75088
                          Major page faults:          977
                 Voluntary context switches:        17169
