<?xml version="1.0" encoding="ISO-8859-1"?>
<modeling>
 <generator>
  <i name="program" type="string">vasp </i>
  <i name="version" type="string">6.4.2  </i>
  <i name="subversion" type="string">20Jul23 (build Dec 23 2024 14:39:31) complex                          parallel </i>
  <i name="platform" type="string">LinuxIFC </i>
  <i name="date" type="string">2025 03 09 </i>
  <i name="time" type="string">21:22:24 </i>
 </generator>
 <incar>
  <i type="int" name="ISTART">     1</i>
  <i type="string" name="PREC">Accurate      (Accurate strictly avoids any aliasing or wrap around errors)</i>
  <i type="logical" name="ADDGRID"> T  </i>
  <i type="int" name="ISPIN">     2</i>
  <i type="int" name="ICHARG">    11</i>
  <i type="int" name="IBRION">     2</i>
  <i name="EDIFF">      0.00000100</i>
  <i name="EDIFFG">     -0.01000000</i>
  <i type="int" name="NSW">     0</i>
  <i type="int" name="ISIF">     2</i>
  <i name="ENCUT">    500.00000000</i>
  <v name="MAGMOM">      4.51000000     -4.51000000      0.00000000      0.00000000</v>
  <i type="int" name="ISMEAR">     0</i>
  <i name="SIGMA">      0.05000000</i>
  <i type="logical" name="LWAVE"> F  </i>
  <i type="logical" name="LCHARG"> F  </i>
  <i type="logical" name="LASPH"> T  </i>
 </incar>
 <primitive_cell>
  <structure name="primitive_cell" >
   <crystal>
    <varray name="basis" >
     <v>       4.15000000       0.00000000       0.00000000 </v>
     <v>      -2.07500000       3.59400000       0.00000000 </v>
     <v>       0.00000000       0.00000000       6.72000000 </v>
    </varray>
    <i name="volume">    100.22947200 </i>
    <varray name="rec_basis" >
     <v>       0.24096386       0.13912076       0.00000000 </v>
     <v>       0.00000000       0.27824151       0.00000000 </v>
     <v>       0.00000000       0.00000000       0.14880952 </v>
    </varray>
   </crystal>
   <varray name="positions" >
    <v>       0.00000000       0.00000000       0.00000000 </v>
    <v>       0.00000000       0.00000000       0.50000000 </v>
    <v>       0.33333334       0.66666669       0.25000000 </v>
    <v>       0.66666666       0.33333331       0.75000000 </v>
   </varray>
  </structure>
  <varray name="primitive_index" >
   <v type="int" >        1 </v>
   <v type="int" >        2 </v>
   <v type="int" >        3 </v>
   <v type="int" >        4 </v>
  </varray>
 </primitive_cell>
 <kpoints>
  <generation param="listgenerated">
   <i name="divisions" type="int">      20 </i>
   <v>       0.00000000       0.00000000       0.00000000 </v>
   <v>       0.50000000       0.00000000       0.00000000 </v>
   <v>       0.33333333       0.33333333       0.00000000 </v>
   <v>      -0.00000000      -0.00000000       0.00000000 </v>
  </generation>
  <varray name="kpointlist" >
   <v>       0.00000000       0.00000000       0.00000000 </v>
   <v>       0.02631579       0.00000000       0.00000000 </v>
   <v>       0.05263158       0.00000000       0.00000000 </v>
   <v>       0.07894737       0.00000000       0.00000000 </v>
   <v>       0.10526316       0.00000000       0.00000000 </v>
   <v>       0.13157895       0.00000000       0.00000000 </v>
   <v>       0.15789474       0.00000000       0.00000000 </v>
   <v>       0.18421053       0.00000000       0.00000000 </v>
   <v>       0.21052632       0.00000000       0.00000000 </v>
   <v>       0.23684211       0.00000000       0.00000000 </v>
   <v>       0.26315789       0.00000000       0.00000000 </v>
   <v>       0.28947368       0.00000000       0.00000000 </v>
   <v>       0.31578947       0.00000000       0.00000000 </v>
   <v>       0.34210526       0.00000000       0.00000000 </v>
   <v>       0.36842105       0.00000000       0.00000000 </v>
   <v>       0.39473684       0.00000000       0.00000000 </v>
   <v>       0.42105263       0.00000000       0.00000000 </v>
   <v>       0.44736842       0.00000000       0.00000000 </v>
   <v>       0.47368421       0.00000000       0.00000000 </v>
   <v>       0.50000000       0.00000000       0.00000000 </v>
   <v>       0.50000000       0.00000000       0.00000000 </v>
   <v>       0.49122807       0.01754386       0.00000000 </v>
   <v>       0.48245614       0.03508772       0.00000000 </v>
   <v>       0.47368421       0.05263158       0.00000000 </v>
   <v>       0.46491228       0.07017544       0.00000000 </v>
   <v>       0.45614035       0.08771930       0.00000000 </v>
   <v>       0.44736842       0.10526316       0.00000000 </v>
   <v>       0.43859649       0.12280702       0.00000000 </v>
   <v>       0.42982456       0.14035088       0.00000000 </v>
   <v>       0.42105263       0.15789474       0.00000000 </v>
   <v>       0.41228070       0.17543860       0.00000000 </v>
   <v>       0.40350877       0.19298246       0.00000000 </v>
   <v>       0.39473684       0.21052632       0.00000000 </v>
   <v>       0.38596491       0.22807018       0.00000000 </v>
   <v>       0.37719298       0.24561404       0.00000000 </v>
   <v>       0.36842105       0.26315789       0.00000000 </v>
   <v>       0.35964912       0.28070175       0.00000000 </v>
   <v>       0.35087719       0.29824561       0.00000000 </v>
   <v>       0.34210526       0.31578947       0.00000000 </v>
   <v>       0.33333333       0.33333333       0.00000000 </v>
   <v>       0.33333333       0.33333333       0.00000000 </v>
   <v>       0.31578947       0.31578947       0.00000000 </v>
   <v>       0.29824561       0.29824561       0.00000000 </v>
   <v>       0.28070175       0.28070175       0.00000000 </v>
   <v>       0.26315789       0.26315789       0.00000000 </v>
   <v>       0.24561404       0.24561404       0.00000000 </v>
   <v>       0.22807018       0.22807018       0.00000000 </v>
   <v>       0.21052632       0.21052632       0.00000000 </v>
   <v>       0.19298246       0.19298246       0.00000000 </v>
   <v>       0.17543860       0.17543860       0.00000000 </v>
   <v>       0.15789474       0.15789474       0.00000000 </v>
   <v>       0.14035088       0.14035088       0.00000000 </v>
   <v>       0.12280702       0.12280702       0.00000000 </v>
   <v>       0.10526316       0.10526316       0.00000000 </v>
   <v>       0.08771930       0.08771930       0.00000000 </v>
   <v>       0.07017544       0.07017544       0.00000000 </v>
   <v>       0.05263158       0.05263158       0.00000000 </v>
   <v>       0.03508772       0.03508772       0.00000000 </v>
   <v>       0.01754386       0.01754386       0.00000000 </v>
   <v>      -0.00000000      -0.00000000       0.00000000 </v>
  </varray>
  <varray name="weights" >
   <v>       0.01666667 </v>
   <v>       0.01666667 </v>
   <v>       0.01666667 </v>
   <v>       0.01666667 </v>
   <v>       0.01666667 </v>
   <v>       0.01666667 </v>
   <v>       0.01666667 </v>
   <v>       0.01666667 </v>
   <v>       0.01666667 </v>
   <v>       0.01666667 </v>
   <v>       0.01666667 </v>
   <v>       0.01666667 </v>
   <v>       0.01666667 </v>
   <v>       0.01666667 </v>
   <v>       0.01666667 </v>
   <v>       0.01666667 </v>
   <v>       0.01666667 </v>
   <v>       0.01666667 </v>
   <v>       0.01666667 </v>
   <v>       0.01666667 </v>
   <v>       0.01666667 </v>
   <v>       0.01666667 </v>
   <v>       0.01666667 </v>
   <v>       0.01666667 </v>
   <v>       0.01666667 </v>
   <v>       0.01666667 </v>
   <v>       0.01666667 </v>
   <v>       0.01666667 </v>
   <v>       0.01666667 </v>
   <v>       0.01666667 </v>
   <v>       0.01666667 </v>
   <v>       0.01666667 </v>
   <v>       0.01666667 </v>
   <v>       0.01666667 </v>
   <v>       0.01666667 </v>
   <v>       0.01666667 </v>
   <v>       0.01666667 </v>
   <v>       0.01666667 </v>
   <v>       0.01666667 </v>
   <v>       0.01666667 </v>
   <v>       0.01666667 </v>
   <v>       0.01666667 </v>
   <v>       0.01666667 </v>
   <v>       0.01666667 </v>
   <v>       0.01666667 </v>
   <v>       0.01666667 </v>
   <v>       0.01666667 </v>
   <v>       0.01666667 </v>
   <v>       0.01666667 </v>
   <v>       0.01666667 </v>
   <v>       0.01666667 </v>
   <v>       0.01666667 </v>
   <v>       0.01666667 </v>
   <v>       0.01666667 </v>
   <v>       0.01666667 </v>
   <v>       0.01666667 </v>
   <v>       0.01666667 </v>
   <v>       0.01666667 </v>
   <v>       0.01666667 </v>
   <v>       0.01666667 </v>
  </varray>
  <kpoints_labels>
   <i name="GAMMA" type="int">       1 </i>
   <i name="M" type="int">       2 </i>
   <i name="M" type="int">       3 </i>
   <i name="K" type="int">       4 </i>
   <i name="K" type="int">       5 </i>
   <i name="GAMMA" type="int">       6 </i>
  </kpoints_labels>
 </kpoints>
 <parameters>
  <separator name="general" >
   <i type="string" name="SYSTEM">unknown system</i>
   <i type="logical" name="LCOMPAT"> F  </i>
  </separator>
  <separator name="electronic" >
   <i type="string" name="PREC">accura</i>
   <i name="ENMAX">    500.00000000</i>
   <i name="ENAUG">    569.08500000</i>
   <i name="EDIFF">      0.00000100</i>
   <i type="int" name="IALGO">    38</i>
   <i type="int" name="IWAVPR">    10</i>
   <i type="int" name="NBANDS">    24</i>
   <i type="int" name="NBANDSLOW">    -1</i>
   <i type="int" name="NBANDSHIGH">    -1</i>
   <i name="NELECT">     38.00000000</i>
   <i type="int" name="TURBO">     0</i>
   <i type="int" name="IRESTART">     0</i>
   <i type="int" name="NREBOOT">     0</i>
   <i type="int" name="NMIN">     0</i>
   <i name="EREF">      0.00000000</i>
   <separator name="electronic smearing" >
    <i type="int" name="ISMEAR">     0</i>
    <i name="SIGMA">      0.05000000</i>
    <i name="KSPACING">      0.50000000</i>
    <i type="logical" name="KGAMMA"> T  </i>
    <i type="logical" name="KBLOWUP"> T  </i>
   </separator>
   <separator name="electronic projectors" >
    <i type="logical" name="LREAL"> F  </i>
    <v name="ROPT">      0.00000000      0.00000000</v>
    <i type="int" name="LMAXPAW">  -100</i>
    <i type="int" name="LMAXMIX">     2</i>
    <i type="logical" name="NLSPLINE"> F  </i>
   </separator>
   <separator name="electronic startup" >
    <i type="int" name="ISTART">     1</i>
    <i type="int" name="ICHARG">    11</i>
    <i type="int" name="INIWAV">     1</i>
   </separator>
   <separator name="electronic spin" >
    <i type="int" name="ISPIN">     2</i>
    <i type="logical" name="LNONCOLLINEAR"> F  </i>
    <v name="MAGMOM">      4.51000000     -4.51000000      0.00000000      0.00000000</v>
    <i name="NUPDOWN">     -1.00000000</i>
    <i type="logical" name="LSORBIT"> F  </i>
    <v name="SAXIS">      0.00000000      0.00000000      1.00000000</v>
    <i type="logical" name="LSPIRAL"> F  </i>
    <v name="QSPIRAL">      0.00000000      0.00000000      0.00000000</v>
    <i type="logical" name="LZEROZ"> F  </i>
   </separator>
   <separator name="electronic exchange-correlation" >
    <i type="logical" name="LASPH"> T  </i>
    <i type="logical" name="LMETAGGA"> F  </i>
   </separator>
   <separator name="electronic convergence" >
    <i type="int" name="NELM">    60</i>
    <i type="int" name="NELMDL">     0</i>
    <i type="int" name="NELMIN">     2</i>
    <i name="ENINI">    500.00000000</i>
    <separator name="electronic convergence detail" >
     <i type="logical" name="LDIAG"> T  </i>
     <i type="logical" name="LSUBROT"> F  </i>
     <i name="WEIMIN">      0.00000000</i>
     <i name="EBREAK">      0.00000001</i>
     <i name="DEPER">      0.30000000</i>
     <i type="int" name="NRMM">     4</i>
     <i name="TIME">      0.40000000</i>
    </separator>
   </separator>
   <separator name="electronic mixer" >
    <i name="AMIX">      0.40000000</i>
    <i name="BMIX">      1.00000000</i>
    <i name="AMIN">      0.10000000</i>
    <i name="AMIX_MAG">      1.60000000</i>
    <i name="BMIX_MAG">      1.00000000</i>
    <separator name="electronic mixer details" >
     <i type="int" name="IMIX">     4</i>
     <i type="logical" name="MIXFIRST"> F  </i>
     <i type="int" name="MAXMIX">   -45</i>
     <i name="WC">    100.00000000</i>
     <i type="int" name="INIMIX">     1</i>
     <i type="int" name="MIXPRE">     1</i>
     <i type="int" name="MREMOVE">     5</i>
    </separator>
   </separator>
   <separator name="electronic dipolcorrection" >
    <i type="logical" name="LDIPOL"> F  </i>
    <i type="logical" name="LMONO"> F  </i>
    <i type="int" name="IDIPOL">     0</i>
    <i name="EPSILON">      1.00000000</i>
    <v name="DIPOL">   -100.00000000   -100.00000000   -100.00000000</v>
    <i name="EFIELD">      0.00000000</i>
   </separator>
  </separator>
  <separator name="grids" >
   <i type="int" name="NGX">    30</i>
   <i type="int" name="NGY">    30</i>
   <i type="int" name="NGZ">    50</i>
   <i type="int" name="NGXF">    60</i>
   <i type="int" name="NGYF">    60</i>
   <i type="int" name="NGZF">   100</i>
   <i type="logical" name="ADDGRID"> T  </i>
  </separator>
  <separator name="ionic" >
   <i type="int" name="NSW">     0</i>
   <i type="int" name="IBRION">    -1</i>
   <i type="int" name="MDALGO">     0</i>
   <i type="int" name="ISIF">     2</i>
   <i name="PSTRESS">      0.00000000</i>
   <i name="EDIFFG">     -0.01000000</i>
   <i type="int" name="NFREE">     1</i>
   <i name="POTIM">      0.50000000</i>
   <i name="SMASS">     -3.00000000</i>
   <i name="SCALEE">      1.00000000</i>
  </separator>
  <separator name="ionic md" >
   <i name="TEBEG">      0.00010000</i>
   <i name="TEEND">      0.00010000</i>
   <i type="int" name="NBLOCK">     1</i>
   <i type="int" name="KBLOCK">     1</i>
   <i type="int" name="NPACO">   256</i>
   <i name="APACO">     10.00000000</i>
  </separator>
  <separator name="symmetry" >
   <i type="int" name="ISYM">     2</i>
   <i name="SYMPREC">      0.00001000</i>
  </separator>
  <separator name="dos" >
   <i type="int" name="LORBIT">     0</i>
   <v name="RWIGS">     -1.00000000     -1.00000000</v>
   <i type="int" name="NEDOS">   301</i>
   <i name="EMIN">     10.00000000</i>
   <i name="EMAX">    -10.00000000</i>
   <i name="EFERMI">      0.00000000</i>
  </separator>
  <separator name="writing" >
   <i type="int" name="NWRITE">     2</i>
   <i type="logical" name="LWAVE"> F  </i>
   <i type="logical" name="LDOWNSAMPLE"> F  </i>
   <i type="logical" name="LCHARG"> F  </i>
   <i type="logical" name="LPARD"> F  </i>
   <i type="logical" name="LVTOT"> F  </i>
   <i type="logical" name="LVHAR"> F  </i>
   <i type="logical" name="LELF"> F  </i>
   <i type="logical" name="LOPTICS"> F  </i>
   <v name="STM">      0.00000000      0.00000000      0.00000000      0.00000000      0.00000000      0.00000000      0.00000000</v>
  </separator>
  <separator name="performance" >
   <i type="int" name="NPAR">     6</i>
   <i type="int" name="NSIM">     4</i>
   <i type="int" name="NBLK">    -1</i>
   <i type="logical" name="LPLANE"> T  </i>
   <i type="logical" name="LSCALAPACK"> T  </i>
   <i type="logical" name="LSCAAWARE"> F  </i>
   <i type="logical" name="LSCALU"> F  </i>
   <i type="logical" name="LASYNC"> F  </i>
   <i type="logical" name="LORBITALREAL"> F  </i>
  </separator>
  <separator name="miscellaneous" >
   <i type="int" name="IDIOT">     3</i>
   <i type="int" name="PHON_NSTRUCT">    -1</i>
   <i type="logical" name="LMUSIC"> F  </i>
   <v name="POMASS">     54.93800000    127.60000000</v>
   <v name="DARWINR">      0.00000000      0.00000000</v>
   <v name="DARWINV">      1.00000000      1.00000000</v>
   <i type="logical" name="LCORR"> T  </i>
  </separator>
  <i type="logical" name="GGA_COMPAT"> T  </i>
  <i type="logical" name="LBERRY"> F  </i>
  <i type="int" name="ICORELEVEL">     0</i>
  <i type="logical" name="LDAU"> F  </i>
  <i type="int" name="I_CONSTRAINED_M">     0</i>
  <separator name="electronic exchange-correlation" >
   <i type="string" name="GGA">--</i>
   <i type="int" name="VOSKOWN">     0</i>
   <i type="logical" name="LHFCALC"> F  </i>
   <i type="string" name="PRECFOCK"></i>
   <i type="logical" name="LSYMGRAD"> F  </i>
   <i type="logical" name="LHFONE"> F  </i>
   <i type="logical" name="LRHFCALC"> F  </i>
   <i type="logical" name="LTHOMAS"> F  </i>
   <i type="logical" name="LMODELHF"> F  </i>
   <i type="logical" name="LFOCKACE"> F  </i>
   <i name="ENCUT4O">     -1.00000000</i>
   <i type="int" name="EXXOEP">     0</i>
   <i type="int" name="FOURORBIT">     0</i>
   <i name="AEXX">      0.00000000</i>
   <i name="HFALPHA">      0.00000000</i>
   <i name="MCALPHA">      0.00000000</i>
   <i name="ALDAX">      1.00000000</i>
   <i name="AGGAX">      1.00000000</i>
   <i name="ALDAC">      1.00000000</i>
   <i name="AGGAC">      1.00000000</i>
   <i type="int" name="NKREDX">     1</i>
   <i type="int" name="NKREDY">     1</i>
   <i type="int" name="NKREDZ">     1</i>
   <i type="logical" name="SHIFTRED"> F  </i>
   <i type="logical" name="ODDONLY"> F  </i>
   <i type="logical" name="EVENONLY"> F  </i>
   <i type="int" name="LMAXFOCK">     0</i>
   <i type="int" name="NMAXFOCKAE">     0</i>
   <i type="logical" name="LFOCKAEDFT"> F  </i>
   <i name="HFSCREEN">      0.00000000</i>
   <i name="HFSCREENC">      0.00000000</i>
   <i type="int" name="NBANDSGWLOW">     0</i>
  </separator>
  <separator name="vdW DFT" >
   <i type="logical" name="LUSE_VDW"> F  </i>
   <i type="int" name="IVDW_NL">     1</i>
   <i type="logical" name="LSPIN_VDW"> F  </i>
   <i name="Zab_VDW">     -0.84910000</i>
   <i name="PARAM1">      0.12340000</i>
   <i name="PARAM2">      1.00000000</i>
   <i name="PARAM3">      0.00000000</i>
  </separator>
  <separator name="model GW" >
   <i type="int" name="MODEL_GW">     0</i>
   <i name="MODEL_EPS0">     15.03442080</i>
   <i name="MODEL_ALPHA">      1.00000000</i>
  </separator>
  <separator name="linear response parameters" >
   <i type="logical" name="LEPSILON"> F  </i>
   <i type="logical" name="LRPA"> F  </i>
   <i type="logical" name="LNABLA"> F  </i>
   <i type="logical" name="LVEL"> F  </i>
   <i name="CSHIFT">      0.10000000</i>
   <i name="OMEGAMAX">     -1.00000000</i>
   <i name="DEG_THRESHOLD">      0.00200000</i>
   <i name="RTIME">     -0.10000000</i>
   <i name="WPLASMAI">      0.00000000</i>
   <v name="DFIELD">      0.00000000      0.00000000      0.00000000</v>
   <v name="WPLASMA">      0.00000000      0.00000000      0.00000000      0.00000000      0.00000000      0.00000000      0.00000000      0.00000000      0.00000000</v>
  </separator>
  <separator name="orbital magnetization" >
   <i type="logical" name="NUCIND"> F  </i>
   <v name="MAGPOS">      0.00000000      0.00000000      0.00000000</v>
   <i type="logical" name="LNICSALL"> T  </i>
   <i type="logical" name="ORBITALMAG"> F  </i>
   <i type="logical" name="LMAGBLOCH"> F  </i>
   <i type="logical" name="LCHIMAG"> F  </i>
   <i type="logical" name="LGAUGE"> T  </i>
   <i type="int" name="MAGATOM">     0</i>
   <v name="MAGDIPOL">      0.00000000      0.00000000      0.00000000</v>
   <v name="AVECCONST">      0.00000000      0.00000000      0.00000000</v>
  </separator>
  <separator name="response functions" >
   <i type="logical" name="LALL_IN_ONE"> F  </i>
   <i type="int" name="IALL_IN_ONE">    -1</i>
   <i type="int" name="NBANDS_WAVE">    -1</i>
   <i type="logical" name="LFINITE_TEMPERATURE"> F  </i>
   <i type="logical" name="LADDER"> F  </i>
   <i type="logical" name="LRPAFORCE"> F  </i>
   <i type="logical" name="LFXC"> F  </i>
   <i type="logical" name="LHARTREE"> T  </i>
   <i type="int" name="IBSE">     0</i>
   <v type="int" name="KPOINT">    -1     0     0     0</v>
   <i type="logical" name="LTCTC"> F  </i>
   <i type="logical" name="LTCTE"> F  </i>
   <i type="logical" name="LTETE"> F  </i>
   <i type="logical" name="LTRIPLET"> F  </i>
   <i type="logical" name="LFXCEPS"> F  </i>
   <i type="logical" name="LFXHEG"> F  </i>
   <i type="int" name="NATURALO">     2</i>
   <i type="logical" name="LHOLEGF"> F  </i>
   <i type="logical" name="L2ORDER"> F  </i>
   <i type="logical" name="LDMP1"> F  </i>
   <i type="logical" name="LMP2LT"> F  </i>
   <i type="logical" name="LSMP2LT"> F  </i>
   <i type="logical" name="LGWLF"> F  </i>
   <i name="ENCUTGW">     -1.60000002</i>
   <i name="ENCUTGWSOFT">     -1.60000002</i>
   <i name="ENCUTLF">     -1.00000000</i>
   <i type="logical" name="LESF_SPLINES"> F  </i>
   <i type="int" name="LMAXMP2">    -1</i>
   <i name="SCISSOR">      0.00000000</i>
   <i type="int" name="NOMEGA">     0</i>
   <i type="int" name="NOMEGAR">     0</i>
   <i type="int" name="NBANDSGW">    -1</i>
   <i type="int" name="NBANDSO">    -1</i>
   <i type="int" name="NBANDSV">    -1</i>
   <i type="int" name="NELMGW">     1</i>
   <i type="int" name="NELMHF">     1</i>
   <i type="int" name="DIM">     3</i>
   <i type="int" name="IESPILON">     4</i>
   <i type="int" name="ANTIRES">     0</i>
   <i name="OMEGAMAX">    -30.00000000</i>
   <i name="OMEGAMIN">    -30.00000000</i>
   <i name="OMEGATL">   -200.00000000</i>
   <i type="int" name="OMEGAGRID">     0</i>
   <i name="CSHIFT">     -0.10000000</i>
   <i type="logical" name="LSELFENERGY"> F  </i>
   <i type="logical" name="LSPECTRAL"> F  </i>
   <i type="logical" name="LSPECTRALGW"> F  </i>
   <i type="logical" name="LSINGLES"> F  </i>
   <i type="logical" name="LFERMIGW"> F  </i>
   <i type="logical" name="ODDONLYGW"> F  </i>
   <i type="logical" name="EVENONLYGW"> F  </i>
   <i type="int" name="NKREDLFX">     1</i>
   <i type="int" name="NKREDLFY">     1</i>
   <i type="int" name="NKREDLFZ">     1</i>
   <i type="int" name="MAXMEM">  2800</i>
   <i type="int" name="TELESCOPE">     0</i>
   <i type="int" name="NTAUPAR">    -1</i>
   <i type="int" name="NOMEGAPAR">    -1</i>
   <i name="DAMP_NEWTON">      0.80000001</i>
   <i name="LAMBDA">      1.00000000</i>
  </separator>
  <separator name="External order field" >
   <i name="OFIELD_KAPPA">      0.00000000</i>
   <v name="OFIELD_K">      0.00000000      0.00000000      0.00000000</v>
   <i name="OFIELD_Q6_NEAR">      0.00000000</i>
   <i name="OFIELD_Q6_FAR">      0.00000000</i>
   <i name="OFIELD_A">      0.00000000</i>
  </separator>
  <separator name="optional k-points parameters" >
   <i type="int" name="KPOINTS_OPT_MODE">     1</i>
   <i type="logical" name="LKPOINTS_OPT"> F  </i>
  </separator>
 </parameters>
 <atominfo>
  <atoms>       4 </atoms>
  <types>       2 </types>
  <array name="atoms" >
   <dimension dim="1">ion</dimension>
   <field type="string">element</field>
   <field type="int">atomtype</field>
   <set>
    <rc><c>Mn</c><c>   1</c></rc>
    <rc><c>Mn</c><c>   1</c></rc>
    <rc><c>Te</c><c>   2</c></rc>
    <rc><c>Te</c><c>   2</c></rc>
   </set>
  </array>
  <array name="atomtypes" >
   <dimension dim="1">type</dimension>
   <field type="int">atomspertype</field>
   <field type="string">element</field>
   <field>mass</field>
   <field>valence</field>
   <field type="string">pseudopotential</field>
   <set>
    <rc><c>   2</c><c>Mn</c><c>     54.93800000</c><c>     13.00000000</c><c>  PAW_PBE Mn_pv 02Aug2007               </c></rc>
    <rc><c>   2</c><c>Te</c><c>    127.60000000</c><c>      6.00000000</c><c>  PAW_PBE Te 08Apr2002                  </c></rc>
   </set>
  </array>
 </atominfo>
 <structure name="initialpos" >
  <crystal>
   <varray name="basis" >
    <v>       4.15000000       0.00000000       0.00000000 </v>
    <v>      -2.07500000       3.59400000       0.00000000 </v>
    <v>       0.00000000       0.00000000       6.72000000 </v>
   </varray>
   <i name="volume">    100.22947200 </i>
   <varray name="rec_basis" >
    <v>       0.24096386       0.13912076       0.00000000 </v>
    <v>       0.00000000       0.27824151       0.00000000 </v>
    <v>       0.00000000       0.00000000       0.14880952 </v>
   </varray>
  </crystal>
  <varray name="positions" >
   <v>       0.00000000       0.00000000       0.00000000 </v>
   <v>       0.00000000       0.00000000       0.50000000 </v>
   <v>       0.33333334       0.66666669       0.25000000 </v>
   <v>       0.66666666       0.33333331       0.75000000 </v>
  </varray>
 </structure>
 <calculation>
  <scstep>
   <time name="dav">    9.58    9.58</time>
   <time name="total">   10.85   10.89</time>
   <energy>
    <i name="alphaZ">     73.61797806 </i>
    <i name="ewald">  -2702.48007209 </i>
    <i name="hartreedc">  -1502.12608897 </i>
    <i name="XCdc">     82.08975864 </i>
    <i name="pawpsdc">   4405.34100369 </i>
    <i name="pawaedc">  -4434.50773613 </i>
    <i name="eentropy">     -0.00028441 </i>
    <i name="bandstr">   -436.07959755 </i>
    <i name="atom">   4497.06325368 </i>
    <i name="e_fr_energy">    -17.08178508 </i>
    <i name="e_wo_entrp">    -17.08150067 </i>
    <i name="e_0_energy">    -17.08164288 </i>
   </energy>
  </scstep>
  <scstep>
   <time name="dav">    9.15    9.17</time>
   <time name="total">    9.15    9.17</time>
   <energy>
    <i name="e_fr_energy">    -24.29127474 </i>
    <i name="e_wo_entrp">    -24.29127474 </i>
    <i name="e_0_energy">    -24.29127474 </i>
   </energy>
  </scstep>
  <scstep>
   <time name="dav">    9.68    9.69</time>
   <time name="total">    9.68    9.69</time>
   <energy>
    <i name="e_fr_energy">    -24.42787540 </i>
    <i name="e_wo_entrp">    -24.42787540 </i>
    <i name="e_0_energy">    -24.42787540 </i>
   </energy>
  </scstep>
  <scstep>
   <time name="dav">    8.55    8.56</time>
   <time name="total">    8.55    8.56</time>
   <energy>
    <i name="e_fr_energy">    -24.43032243 </i>
    <i name="e_wo_entrp">    -24.43032243 </i>
    <i name="e_0_energy">    -24.43032243 </i>
   </energy>
  </scstep>
  <scstep>
   <time name="dav">    9.59    9.60</time>
   <time name="total">    9.59    9.61</time>
   <energy>
    <i name="e_fr_energy">    -24.43042037 </i>
    <i name="e_wo_entrp">    -24.43042037 </i>
    <i name="e_0_energy">    -24.43042037 </i>
   </energy>
  </scstep>
  <scstep>
   <time name="dav">    8.18    8.19</time>
   <time name="total">    8.18    8.19</time>
   <energy>
    <i name="e_fr_energy">    -24.43042349 </i>
    <i name="e_wo_entrp">    -24.43042349 </i>
    <i name="e_0_energy">    -24.43042349 </i>
   </energy>
  </scstep>
  <scstep>
   <time name="dav">    7.18    7.19</time>
   <time name="total">    7.18    7.19</time>
   <energy>
    <i name="alphaZ">     73.61797806 </i>
    <i name="ewald">  -2702.48007209 </i>
    <i name="hartreedc">  -1502.12608897 </i>
    <i name="XCdc">     82.08975864 </i>
    <i name="pawpsdc">   4405.34100369 </i>
    <i name="pawaedc">  -4434.50773613 </i>
    <i name="eentropy">     -0.00000000 </i>
    <i name="bandstr">   -443.42852051 </i>
    <i name="atom">   4497.06325368 </i>
    <i name="e_fr_energy">    -24.43042362 </i>
    <i name="e_wo_entrp">    -24.43042362 </i>
    <i name="e_0_energy">    -24.43042362 </i>
   </energy>
  </scstep>
  <structure>
   <crystal>
    <varray name="basis" >
     <v>       4.15000000       0.00000000       0.00000000 </v>
     <v>      -2.07500000       3.59400000       0.00000000 </v>
     <v>       0.00000000       0.00000000       6.72000000 </v>
    </varray>
    <i name="volume">    100.22947200 </i>
    <varray name="rec_basis" >
     <v>       0.24096386       0.13912076       0.00000000 </v>
     <v>       0.00000000       0.27824151       0.00000000 </v>
     <v>       0.00000000       0.00000000       0.14880952 </v>
    </varray>
   </crystal>
   <varray name="positions" >
    <v>       0.00000000       0.00000000       0.00000000 </v>
    <v>       0.00000000       0.00000000       0.50000000 </v>
    <v>       0.33333334       0.66666669       0.25000000 </v>
    <v>       0.66666666       0.33333331       0.75000000 </v>
   </varray>
  </structure>
  <varray name="forces" >
   <v>      -0.00000000       0.00000000       0.00000000 </v>
   <v>      -0.00000000       0.00000000       0.00000000 </v>
   <v>       0.00000000      -0.00000000      -0.00000000 </v>
   <v>      -0.00000000       0.00000000      -0.00000000 </v>
  </varray>
  <varray name="stress" >
   <v>     -76.26456538       0.00000000      -0.00000000 </v>
   <v>       0.00000000     -76.26433512       0.00000000 </v>
   <v>       0.00000000       0.00000000     -89.07084364 </v>
  </varray>
  <energy>
   <i name="e_fr_energy">    -24.43042362 </i>
   <i name="e_wo_entrp">    -24.43042362 </i>
   <i name="e_0_energy">    -24.43042362 </i>
  </energy>
  <time name="totalsc">   74.93   75.93</time>
  <eigenvalues>
   <array>
    <dimension dim="1">band</dimension>
    <dimension dim="2">kpoint</dimension>
    <dimension dim="3">spin</dimension>
    <field>eigene</field>
    <field>occ</field>
    <set>
     <set comment="spin 1">
      <set comment="kpoint 1">
       <r>  -44.0217    1.0000 </r>
       <r>  -44.0217    1.0000 </r>
       <r>  -44.0161    1.0000 </r>
       <r>  -39.6672    1.0000 </r>
       <r>  -39.6613    1.0000 </r>
       <r>  -39.6613    1.0000 </r>
       <r>   -5.9019    1.0000 </r>
       <r>   -4.6432    1.0000 </r>
       <r>    0.7180    1.0000 </r>
       <r>    2.7892    1.0000 </r>
       <r>    2.7892    1.0000 </r>
       <r>    3.4795    1.0000 </r>
       <r>    3.4921    1.0000 </r>
       <r>    3.4921    1.0000 </r>
       <r>    5.3089    1.0000 </r>
       <r>    5.3089    1.0000 </r>
       <r>    5.7673    1.0000 </r>
       <r>    5.7673    1.0000 </r>
       <r>    5.9628    1.0000 </r>
       <r>    7.2375    0.0000 </r>
       <r>    7.2375    0.0000 </r>
       <r>    7.4018    0.0000 </r>
       <r>    8.5318    0.0000 </r>
       <r>    8.6160    0.0000 </r>
      </set>
      <set comment="kpoint 2">
       <r>  -44.0217    1.0000 </r>
       <r>  -44.0217    1.0000 </r>
       <r>  -44.0161    1.0000 </r>
       <r>  -39.6672    1.0000 </r>
       <r>  -39.6613    1.0000 </r>
       <r>  -39.6613    1.0000 </r>
       <r>   -5.8963    1.0000 </r>
       <r>   -4.6409    1.0000 </r>
       <r>    0.7258    1.0000 </r>
       <r>    2.7855    1.0000 </r>
       <r>    2.7903    1.0000 </r>
       <r>    3.4774    1.0000 </r>
       <r>    3.4896    1.0000 </r>
       <r>    3.4905    1.0000 </r>
       <r>    5.2595    1.0000 </r>
       <r>    5.3009    1.0000 </r>
       <r>    5.7083    1.0000 </r>
       <r>    5.7622    1.0000 </r>
       <r>    5.9914    1.0000 </r>
       <r>    7.2406    0.0000 </r>
       <r>    7.2455    0.0000 </r>
       <r>    7.4092    0.0000 </r>
       <r>    8.5443    0.0000 </r>
       <r>    8.5916    0.0000 </r>
      </set>
      <set comment="kpoint 3">
       <r>  -44.0218    1.0000 </r>
       <r>  -44.0217    1.0000 </r>
       <r>  -44.0161    1.0000 </r>
       <r>  -39.6672    1.0000 </r>
       <r>  -39.6613    1.0000 </r>
       <r>  -39.6613    1.0000 </r>
       <r>   -5.8796    1.0000 </r>
       <r>   -4.6341    1.0000 </r>
       <r>    0.7491    1.0000 </r>
       <r>    2.7743    1.0000 </r>
       <r>    2.7935    1.0000 </r>
       <r>    3.4678    1.0000 </r>
       <r>    3.4850    1.0000 </r>
       <r>    3.4859    1.0000 </r>
       <r>    5.1312    1.0000 </r>
       <r>    5.2770    1.0000 </r>
       <r>    5.5498    1.0000 </r>
       <r>    5.7480    1.0000 </r>
       <r>    6.0597    1.0000 </r>
       <r>    7.2430    0.0000 </r>
       <r>    7.2683    0.0000 </r>
       <r>    7.4285    0.0000 </r>
       <r>    8.4109    0.0000 </r>
       <r>    8.5907    0.0000 </r>
      </set>
      <set comment="kpoint 4">
       <r>  -44.0218    1.0000 </r>
       <r>  -44.0218    1.0000 </r>
       <r>  -44.0161    1.0000 </r>
       <r>  -39.6672    1.0000 </r>
       <r>  -39.6614    1.0000 </r>
       <r>  -39.6613    1.0000 </r>
       <r>   -5.8519    1.0000 </r>
       <r>   -4.6229    1.0000 </r>
       <r>    0.7879    1.0000 </r>
       <r>    2.7560    1.0000 </r>
       <r>    2.7986    1.0000 </r>
       <r>    3.4449    1.0000 </r>
       <r>    3.4786    1.0000 </r>
       <r>    3.4812    1.0000 </r>
       <r>    4.9514    1.0000 </r>
       <r>    5.2372    1.0000 </r>
       <r>    5.3384    1.0000 </r>
       <r>    5.7277    1.0000 </r>
       <r>    6.1353    1.0000 </r>
       <r>    7.2366    0.0000 </r>
       <r>    7.3022    0.0000 </r>
       <r>    7.4525    0.0000 </r>
       <r>    8.2769    0.0000 </r>
       <r>    8.5645    0.0000 </r>
      </set>
      <set comment="kpoint 5">
       <r>  -44.0219    1.0000 </r>
       <r>  -44.0218    1.0000 </r>
       <r>  -44.0161    1.0000 </r>
       <r>  -39.6672    1.0000 </r>
       <r>  -39.6615    1.0000 </r>
       <r>  -39.6614    1.0000 </r>
       <r>   -5.8136    1.0000 </r>
       <r>   -4.6078    1.0000 </r>
       <r>    0.8419    1.0000 </r>
       <r>    2.7308    1.0000 </r>
       <r>    2.8053    1.0000 </r>
       <r>    3.4041    1.0000 </r>
       <r>    3.4693    1.0000 </r>
       <r>    3.4773    1.0000 </r>
       <r>    4.7368    1.0000 </r>
       <r>    5.1158    1.0000 </r>
       <r>    5.1820    1.0000 </r>
       <r>    5.7046    1.0000 </r>
       <r>    6.1965    1.0000 </r>
       <r>    7.2203    0.0000 </r>
       <r>    7.3425    0.0000 </r>
       <r>    7.4764    0.0000 </r>
       <r>    8.1696    0.0000 </r>
       <r>    8.5366    0.0000 </r>
      </set>
      <set comment="kpoint 6">
       <r>  -44.0219    1.0000 </r>
       <r>  -44.0218    1.0000 </r>
       <r>  -44.0160    1.0000 </r>
       <r>  -39.6672    1.0000 </r>
       <r>  -39.6616    1.0000 </r>
       <r>  -39.6614    1.0000 </r>
       <r>   -5.7649    1.0000 </r>
       <r>   -4.5891    1.0000 </r>
       <r>    0.9109    1.0000 </r>
       <r>    2.6990    1.0000 </r>
       <r>    2.8131    1.0000 </r>
       <r>    3.3370    1.0000 </r>
       <r>    3.4588    1.0000 </r>
       <r>    3.4727    1.0000 </r>
       <r>    4.5072    1.0000 </r>
       <r>    4.9035    1.0000 </r>
       <r>    5.1132    1.0000 </r>
       <r>    5.6812    1.0000 </r>
       <r>    6.2309    1.0000 </r>
       <r>    7.1950    0.0000 </r>
       <r>    7.3842    0.0000 </r>
       <r>    7.4994    0.0000 </r>
       <r>    8.0996    0.0000 </r>
       <r>    8.5128    0.0000 </r>
      </set>
      <set comment="kpoint 7">
       <r>  -44.0220    1.0000 </r>
       <r>  -44.0218    1.0000 </r>
       <r>  -44.0160    1.0000 </r>
       <r>  -39.6672    1.0000 </r>
       <r>  -39.6617    1.0000 </r>
       <r>  -39.6614    1.0000 </r>
       <r>   -5.7065    1.0000 </r>
       <r>   -4.5674    1.0000 </r>
       <r>    0.9943    1.0000 </r>
       <r>    2.6605    1.0000 </r>
       <r>    2.8216    1.0000 </r>
       <r>    3.2314    1.0000 </r>
       <r>    3.4481    1.0000 </r>
       <r>    3.4670    1.0000 </r>
       <r>    4.2908    1.0000 </r>
       <r>    4.7065    1.0000 </r>
       <r>    5.0332    1.0000 </r>
       <r>    5.6586    1.0000 </r>
       <r>    6.2320    1.0000 </r>
       <r>    7.1618    0.0000 </r>
       <r>    7.4232    0.0000 </r>
       <r>    7.5222    0.0000 </r>
       <r>    8.0700    0.0000 </r>
       <r>    8.4974    0.0000 </r>
      </set>
      <set comment="kpoint 8">
       <r>  -44.0221    1.0000 </r>
       <r>  -44.0218    1.0000 </r>
       <r>  -44.0160    1.0000 </r>
       <r>  -39.6671    1.0000 </r>
       <r>  -39.6618    1.0000 </r>
       <r>  -39.6614    1.0000 </r>
       <r>   -5.6388    1.0000 </r>
       <r>   -4.5436    1.0000 </r>
       <r>    1.0917    1.0000 </r>
       <r>    2.6135    1.0000 </r>
       <r>    2.8298    1.0000 </r>
       <r>    3.0785    1.0000 </r>
       <r>    3.4387    1.0000 </r>
       <r>    3.4601    1.0000 </r>
       <r>    4.1112    1.0000 </r>
       <r>    4.5254    1.0000 </r>
       <r>    4.9449    1.0000 </r>
       <r>    5.6372    1.0000 </r>
       <r>    6.1982    1.0000 </r>
       <r>    7.1238    0.0000 </r>
       <r>    7.4570    0.0000 </r>
       <r>    7.5455    0.0000 </r>
       <r>    8.0757    0.0000 </r>
       <r>    8.4933    0.0000 </r>
      </set>
      <set comment="kpoint 9">
       <r>  -44.0221    1.0000 </r>
       <r>  -44.0218    1.0000 </r>
       <r>  -44.0160    1.0000 </r>
       <r>  -39.6671    1.0000 </r>
       <r>  -39.6619    1.0000 </r>
       <r>  -39.6615    1.0000 </r>
       <r>   -5.5629    1.0000 </r>
       <r>   -4.5186    1.0000 </r>
       <r>    1.2022    1.0000 </r>
       <r>    2.5509    1.0000 </r>
       <r>    2.8371    1.0000 </r>
       <r>    2.8890    1.0000 </r>
       <r>    3.4320    1.0000 </r>
       <r>    3.4516    1.0000 </r>
       <r>    3.9728    1.0000 </r>
       <r>    4.3632    1.0000 </r>
       <r>    4.8510    1.0000 </r>
       <r>    5.6170    1.0000 </r>
       <r>    6.1319    1.0000 </r>
       <r>    7.0845    0.0000 </r>
       <r>    7.4846    0.0000 </r>
       <r>    7.5696    0.0000 </r>
       <r>    8.1051    0.0000 </r>
       <r>    8.5009    0.0000 </r>
      </set>
      <set comment="kpoint 10">
       <r>  -44.0222    1.0000 </r>
       <r>  -44.0219    1.0000 </r>
       <r>  -44.0160    1.0000 </r>
       <r>  -39.6671    1.0000 </r>
       <r>  -39.6620    1.0000 </r>
       <r>  -39.6615    1.0000 </r>
       <r>   -5.4796    1.0000 </r>
       <r>   -4.4934    1.0000 </r>
       <r>    1.3250    1.0000 </r>
       <r>    2.4445    1.0000 </r>
       <r>    2.7088    1.0000 </r>
       <r>    2.8425    1.0000 </r>
       <r>    3.4296    1.0000 </r>
       <r>    3.4409    1.0000 </r>
       <r>    3.8604    1.0000 </r>
       <r>    4.2268    1.0000 </r>
       <r>    4.7538    1.0000 </r>
       <r>    5.5979    1.0000 </r>
       <r>    6.0383    1.0000 </r>
       <r>    7.0475    0.0000 </r>
       <r>    7.5066    0.0000 </r>
       <r>    7.5944    0.0000 </r>
       <r>    8.1422    0.0000 </r>
       <r>    8.5187    0.0000 </r>
      </set>
      <set comment="kpoint 11">
       <r>  -44.0223    1.0000 </r>
       <r>  -44.0219    1.0000 </r>
       <r>  -44.0160    1.0000 </r>
       <r>  -39.6671    1.0000 </r>
       <r>  -39.6622    1.0000 </r>
       <r>  -39.6616    1.0000 </r>
       <r>   -5.3901    1.0000 </r>
       <r>   -4.4692    1.0000 </r>
       <r>    1.4585    1.0000 </r>
       <r>    2.2576    1.0000 </r>
       <r>    2.5957    1.0000 </r>
       <r>    2.8454    1.0000 </r>
       <r>    3.4264    1.0000 </r>
       <r>    3.4328    1.0000 </r>
       <r>    3.7553    1.0000 </r>
       <r>    4.1230    1.0000 </r>
       <r>    4.6552    1.0000 </r>
       <r>    5.5798    1.0000 </r>
       <r>    5.9230    1.0000 </r>
       <r>    7.0146    0.0000 </r>
       <r>    7.5245    0.0000 </r>
       <r>    7.6193    0.0000 </r>
       <r>    8.1693    0.0000 </r>
       <r>    8.5441    0.0000 </r>
      </set>
      <set comment="kpoint 12">
       <r>  -44.0224    1.0000 </r>
       <r>  -44.0219    1.0000 </r>
       <r>  -44.0160    1.0000 </r>
       <r>  -39.6670    1.0000 </r>
       <r>  -39.6623    1.0000 </r>
       <r>  -39.6616    1.0000 </r>
       <r>   -5.2959    1.0000 </r>
       <r>   -4.4474    1.0000 </r>
       <r>    1.5998    1.0000 </r>
       <r>    2.0274    1.0000 </r>
       <r>    2.5297    1.0000 </r>
       <r>    2.8455    1.0000 </r>
       <r>    3.4040    1.0000 </r>
       <r>    3.4427    1.0000 </r>
       <r>    3.6523    1.0000 </r>
       <r>    4.0517    1.0000 </r>
       <r>    4.5570    1.0000 </r>
       <r>    5.5629    1.0000 </r>
       <r>    5.7916    1.0000 </r>
       <r>    6.9864    0.0000 </r>
       <r>    7.5398    0.0000 </r>
       <r>    7.6434    0.0000 </r>
       <r>    8.1703    0.0000 </r>
       <r>    8.5742    0.0000 </r>
      </set>
      <set comment="kpoint 13">
       <r>  -44.0225    1.0000 </r>
       <r>  -44.0220    1.0000 </r>
       <r>  -44.0159    1.0000 </r>
       <r>  -39.6670    1.0000 </r>
       <r>  -39.6624    1.0000 </r>
       <r>  -39.6616    1.0000 </r>
       <r>   -5.1986    1.0000 </r>
       <r>   -4.4294    1.0000 </r>
       <r>    1.7191    1.0000 </r>
       <r>    1.8230    1.0000 </r>
       <r>    2.4811    1.0000 </r>
       <r>    2.8428    1.0000 </r>
       <r>    3.3647    1.0000 </r>
       <r>    3.4600    1.0000 </r>
       <r>    3.5641    1.0000 </r>
       <r>    4.0041    1.0000 </r>
       <r>    4.4602    1.0000 </r>
       <r>    5.5473    1.0000 </r>
       <r>    5.6492    1.0000 </r>
       <r>    6.9629    0.0000 </r>
       <r>    7.5539    0.0000 </r>
       <r>    7.6650    0.0000 </r>
       <r>    8.1370    0.0000 </r>
       <r>    8.6060    0.0000 </r>
      </set>
      <set comment="kpoint 14">
       <r>  -44.0226    1.0000 </r>
       <r>  -44.0220    1.0000 </r>
       <r>  -44.0159    1.0000 </r>
       <r>  -39.6670    1.0000 </r>
       <r>  -39.6625    1.0000 </r>
       <r>  -39.6616    1.0000 </r>
       <r>   -5.1003    1.0000 </r>
       <r>   -4.4168    1.0000 </r>
       <r>    1.5551    1.0000 </r>
       <r>    1.9199    1.0000 </r>
       <r>    2.4415    1.0000 </r>
       <r>    2.8378    1.0000 </r>
       <r>    3.2992    1.0000 </r>
       <r>    3.4845    1.0000 </r>
       <r>    3.5071    1.0000 </r>
       <r>    3.9701    1.0000 </r>
       <r>    4.3663    1.0000 </r>
       <r>    5.5011    1.0000 </r>
       <r>    5.5332    1.0000 </r>
       <r>    6.9438    0.0000 </r>
       <r>    7.5673    0.0000 </r>
       <r>    7.6809    0.0000 </r>
       <r>    8.0756    0.0000 </r>
       <r>    8.6372    0.0000 </r>
      </set>
      <set comment="kpoint 15">
       <r>  -44.0226    1.0000 </r>
       <r>  -44.0220    1.0000 </r>
       <r>  -44.0159    1.0000 </r>
       <r>  -39.6670    1.0000 </r>
       <r>  -39.6626    1.0000 </r>
       <r>  -39.6617    1.0000 </r>
       <r>   -5.0031    1.0000 </r>
       <r>   -4.4110    1.0000 </r>
       <r>    1.3582    1.0000 </r>
       <r>    2.0713    1.0000 </r>
       <r>    2.4101    1.0000 </r>
       <r>    2.8313    1.0000 </r>
       <r>    3.2177    1.0000 </r>
       <r>    3.4770    1.0000 </r>
       <r>    3.5157    1.0000 </r>
       <r>    3.9423    1.0000 </r>
       <r>    4.2763    1.0000 </r>
       <r>    5.3533    1.0000 </r>
       <r>    5.5209    1.0000 </r>
       <r>    6.9285    0.0000 </r>
       <r>    7.5802    0.0000 </r>
       <r>    7.6856    0.0000 </r>
       <r>    8.0054    0.0000 </r>
       <r>    8.6660    0.0000 </r>
      </set>
      <set comment="kpoint 16">
       <r>  -44.0227    1.0000 </r>
       <r>  -44.0220    1.0000 </r>
       <r>  -44.0159    1.0000 </r>
       <r>  -39.6669    1.0000 </r>
       <r>  -39.6627    1.0000 </r>
       <r>  -39.6617    1.0000 </r>
       <r>   -4.9097    1.0000 </r>
       <r>   -4.4133    1.0000 </r>
       <r>    1.1875    1.0000 </r>
       <r>    2.2125    1.0000 </r>
       <r>    2.3929    1.0000 </r>
       <r>    2.8243    1.0000 </r>
       <r>    3.1377    1.0000 </r>
       <r>    3.4601    1.0000 </r>
       <r>    3.5524    1.0000 </r>
       <r>    3.9162    1.0000 </r>
       <r>    4.1916    1.0000 </r>
       <r>    5.2130    1.0000 </r>
       <r>    5.5104    1.0000 </r>
       <r>    6.9166    0.0000 </r>
       <r>    7.5922    0.0000 </r>
       <r>    7.6718    0.0000 </r>
       <r>    7.9495    0.0000 </r>
       <r>    8.6910    0.0000 </r>
      </set>
      <set comment="kpoint 17">
       <r>  -44.0227    1.0000 </r>
       <r>  -44.0220    1.0000 </r>
       <r>  -44.0159    1.0000 </r>
       <r>  -39.6669    1.0000 </r>
       <r>  -39.6628    1.0000 </r>
       <r>  -39.6617    1.0000 </r>
       <r>   -4.8233    1.0000 </r>
       <r>   -4.4240    1.0000 </r>
       <r>    1.0494    1.0000 </r>
       <r>    2.2982    1.0000 </r>
       <r>    2.4261    1.0000 </r>
       <r>    2.8177    1.0000 </r>
       <r>    3.0689    1.0000 </r>
       <r>    3.4496    1.0000 </r>
       <r>    3.5926    1.0000 </r>
       <r>    3.8895    1.0000 </r>
       <r>    4.1143    1.0000 </r>
       <r>    5.0890    1.0000 </r>
       <r>    5.5021    1.0000 </r>
       <r>    6.9076    0.0000 </r>
       <r>    7.6026    0.0000 </r>
       <r>    7.6395    0.0000 </r>
       <r>    7.9198    0.0000 </r>
       <r>    8.7112    0.0000 </r>
      </set>
      <set comment="kpoint 18">
       <r>  -44.0228    1.0000 </r>
       <r>  -44.0220    1.0000 </r>
       <r>  -44.0159    1.0000 </r>
       <r>  -39.6669    1.0000 </r>
       <r>  -39.6628    1.0000 </r>
       <r>  -39.6617    1.0000 </r>
       <r>   -4.7483    1.0000 </r>
       <r>   -4.4422    1.0000 </r>
       <r>    0.9478    1.0000 </r>
       <r>    2.3074    1.0000 </r>
       <r>    2.5200    1.0000 </r>
       <r>    2.8124    1.0000 </r>
       <r>    3.0155    1.0000 </r>
       <r>    3.4428    1.0000 </r>
       <r>    3.6325    1.0000 </r>
       <r>    3.8634    1.0000 </r>
       <r>    4.0479    1.0000 </r>
       <r>    4.9910    1.0000 </r>
       <r>    5.4961    1.0000 </r>
       <r>    6.9014    0.0000 </r>
       <r>    7.6021    0.0000 </r>
       <r>    7.6108    0.0000 </r>
       <r>    7.9099    0.0000 </r>
       <r>    8.7261    0.0000 </r>
      </set>
      <set comment="kpoint 19">
       <r>  -44.0228    1.0000 </r>
       <r>  -44.0220    1.0000 </r>
       <r>  -44.0159    1.0000 </r>
       <r>  -39.6669    1.0000 </r>
       <r>  -39.6629    1.0000 </r>
       <r>  -39.6617    1.0000 </r>
       <r>   -4.6925    1.0000 </r>
       <r>   -4.4627    1.0000 </r>
       <r>    0.8857    1.0000 </r>
       <r>    2.3027    1.0000 </r>
       <r>    2.5977    1.0000 </r>
       <r>    2.8089    1.0000 </r>
       <r>    2.9805    1.0000 </r>
       <r>    3.4388    1.0000 </r>
       <r>    3.6651    1.0000 </r>
       <r>    3.8428    1.0000 </r>
       <r>    3.9995    1.0000 </r>
       <r>    4.9281    1.0000 </r>
       <r>    5.4924    1.0000 </r>
       <r>    6.8976    0.0000 </r>
       <r>    7.5744    0.0000 </r>
       <r>    7.6160    0.0000 </r>
       <r>    7.9083    0.0000 </r>
       <r>    8.7351    0.0000 </r>
      </set>
      <set comment="kpoint 20">
       <r>  -44.0228    1.0000 </r>
       <r>  -44.0220    1.0000 </r>
       <r>  -44.0159    1.0000 </r>
       <r>  -39.6669    1.0000 </r>
       <r>  -39.6629    1.0000 </r>
       <r>  -39.6617    1.0000 </r>
       <r>   -4.6703    1.0000 </r>
       <r>   -4.4730    1.0000 </r>
       <r>    0.8648    1.0000 </r>
       <r>    2.3005    1.0000 </r>
       <r>    2.6271    1.0000 </r>
       <r>    2.8078    1.0000 </r>
       <r>    2.9678    1.0000 </r>
       <r>    3.4375    1.0000 </r>
       <r>    3.6784    1.0000 </r>
       <r>    3.8347    1.0000 </r>
       <r>    3.9809    1.0000 </r>
       <r>    4.9064    1.0000 </r>
       <r>    5.4912    1.0000 </r>
       <r>    6.8964    0.0000 </r>
       <r>    7.5644    0.0000 </r>
       <r>    7.6178    0.0000 </r>
       <r>    7.9084    0.0000 </r>
       <r>    8.7382    0.0000 </r>
      </set>
      <set comment="kpoint 21">
       <r>  -44.0228    1.0000 </r>
       <r>  -44.0220    1.0000 </r>
       <r>  -44.0159    1.0000 </r>
       <r>  -39.6669    1.0000 </r>
       <r>  -39.6629    1.0000 </r>
       <r>  -39.6617    1.0000 </r>
       <r>   -4.6703    1.0000 </r>
       <r>   -4.4730    1.0000 </r>
       <r>    0.8648    1.0000 </r>
       <r>    2.3005    1.0000 </r>
       <r>    2.6271    1.0000 </r>
       <r>    2.8078    1.0000 </r>
       <r>    2.9678    1.0000 </r>
       <r>    3.4375    1.0000 </r>
       <r>    3.6784    1.0000 </r>
       <r>    3.8347    1.0000 </r>
       <r>    3.9809    1.0000 </r>
       <r>    4.9064    1.0000 </r>
       <r>    5.4912    1.0000 </r>
       <r>    6.8964    0.0000 </r>
       <r>    7.5644    0.0000 </r>
       <r>    7.6178    0.0000 </r>
       <r>    7.9084    0.0000 </r>
       <r>    8.7382    0.0000 </r>
      </set>
      <set comment="kpoint 22">
       <r>  -44.0228    1.0000 </r>
       <r>  -44.0220    1.0000 </r>
       <r>  -44.0159    1.0000 </r>
       <r>  -39.6669    1.0000 </r>
       <r>  -39.6629    1.0000 </r>
       <r>  -39.6617    1.0000 </r>
       <r>   -4.6695    1.0000 </r>
       <r>   -4.4725    1.0000 </r>
       <r>    0.8662    1.0000 </r>
       <r>    2.2996    1.0000 </r>
       <r>    2.6284    1.0000 </r>
       <r>    2.8072    1.0000 </r>
       <r>    2.9701    1.0000 </r>
       <r>    3.4270    1.0000 </r>
       <r>    3.6803    1.0000 </r>
       <r>    3.8252    1.0000 </r>
       <r>    3.9903    1.0000 </r>
       <r>    4.9068    1.0000 </r>
       <r>    5.4854    1.0000 </r>
       <r>    6.9033    0.0000 </r>
       <r>    7.5637    0.0000 </r>
       <r>    7.6171    0.0000 </r>
       <r>    7.9084    0.0000 </r>
       <r>    8.7085    0.0000 </r>
      </set>
      <set comment="kpoint 23">
       <r>  -44.0228    1.0000 </r>
       <r>  -44.0220    1.0000 </r>
       <r>  -44.0159    1.0000 </r>
       <r>  -39.6669    1.0000 </r>
       <r>  -39.6629    1.0000 </r>
       <r>  -39.6617    1.0000 </r>
       <r>   -4.6671    1.0000 </r>
       <r>   -4.4709    1.0000 </r>
       <r>    0.8703    1.0000 </r>
       <r>    2.2969    1.0000 </r>
       <r>    2.6322    1.0000 </r>
       <r>    2.8059    1.0000 </r>
       <r>    2.9768    1.0000 </r>
       <r>    3.3956    1.0000 </r>
       <r>    3.6857    1.0000 </r>
       <r>    3.8040    1.0000 </r>
       <r>    4.0119    1.0000 </r>
       <r>    4.9080    1.0000 </r>
       <r>    5.4681    1.0000 </r>
       <r>    6.9234    0.0000 </r>
       <r>    7.5617    0.0000 </r>
       <r>    7.6147    0.0000 </r>
       <r>    7.9084    0.0000 </r>
       <r>    8.6341    0.0000 </r>
      </set>
      <set comment="kpoint 24">
       <r>  -44.0228    1.0000 </r>
       <r>  -44.0221    1.0000 </r>
       <r>  -44.0159    1.0000 </r>
       <r>  -39.6669    1.0000 </r>
       <r>  -39.6629    1.0000 </r>
       <r>  -39.6618    1.0000 </r>
       <r>   -4.6631    1.0000 </r>
       <r>   -4.4683    1.0000 </r>
       <r>    0.8771    1.0000 </r>
       <r>    2.2926    1.0000 </r>
       <r>    2.6386    1.0000 </r>
       <r>    2.8042    1.0000 </r>
       <r>    2.9871    1.0000 </r>
       <r>    3.3436    1.0000 </r>
       <r>    3.6949    1.0000 </r>
       <r>    3.7812    1.0000 </r>
       <r>    4.0366    1.0000 </r>
       <r>    4.9099    1.0000 </r>
       <r>    5.4397    1.0000 </r>
       <r>    6.9547    0.0000 </r>
       <r>    7.5586    0.0000 </r>
       <r>    7.6110    0.0000 </r>
       <r>    7.9084    0.0000 </r>
       <r>    8.5397    0.0000 </r>
      </set>
      <set comment="kpoint 25">
       <r>  -44.0228    1.0000 </r>
       <r>  -44.0221    1.0000 </r>
       <r>  -44.0159    1.0000 </r>
       <r>  -39.6669    1.0000 </r>
       <r>  -39.6628    1.0000 </r>
       <r>  -39.6618    1.0000 </r>
       <r>   -4.6576    1.0000 </r>
       <r>   -4.4648    1.0000 </r>
       <r>    0.8865    1.0000 </r>
       <r>    2.2867    1.0000 </r>
       <r>    2.6474    1.0000 </r>
       <r>    2.8027    1.0000 </r>
       <r>    3.0003    1.0000 </r>
       <r>    3.2734    1.0000 </r>
       <r>    3.7076    1.0000 </r>
       <r>    3.7613    1.0000 </r>
       <r>    4.0600    1.0000 </r>
       <r>    4.9123    1.0000 </r>
       <r>    5.4008    1.0000 </r>
       <r>    6.9943    0.0000 </r>
       <r>    7.5547    0.0000 </r>
       <r>    7.6060    0.0000 </r>
       <r>    7.9083    0.0000 </r>
       <r>    8.4415    0.0000 </r>
      </set>
      <set comment="kpoint 26">
       <r>  -44.0228    1.0000 </r>
       <r>  -44.0221    1.0000 </r>
       <r>  -44.0159    1.0000 </r>
       <r>  -39.6669    1.0000 </r>
       <r>  -39.6628    1.0000 </r>
       <r>  -39.6618    1.0000 </r>
       <r>   -4.6505    1.0000 </r>
       <r>   -4.4606    1.0000 </r>
       <r>    0.8982    1.0000 </r>
       <r>    2.2796    1.0000 </r>
       <r>    2.6585    1.0000 </r>
       <r>    2.8020    1.0000 </r>
       <r>    3.0154    1.0000 </r>
       <r>    3.1883    1.0000 </r>
       <r>    3.7239    1.0000 </r>
       <r>    3.7453    1.0000 </r>
       <r>    4.0808    1.0000 </r>
       <r>    4.9149    1.0000 </r>
       <r>    5.3525    1.0000 </r>
       <r>    7.0382    0.0000 </r>
       <r>    7.5508    0.0000 </r>
       <r>    7.6001    0.0000 </r>
       <r>    7.9081    0.0000 </r>
       <r>    8.3481    0.0000 </r>
      </set>
      <set comment="kpoint 27">
       <r>  -44.0228    1.0000 </r>
       <r>  -44.0221    1.0000 </r>
       <r>  -44.0159    1.0000 </r>
       <r>  -39.6669    1.0000 </r>
       <r>  -39.6628    1.0000 </r>
       <r>  -39.6618    1.0000 </r>
       <r>   -4.6421    1.0000 </r>
       <r>   -4.4557    1.0000 </r>
       <r>    0.9121    1.0000 </r>
       <r>    2.2713    1.0000 </r>
       <r>    2.6716    1.0000 </r>
       <r>    2.8024    1.0000 </r>
       <r>    3.0318    1.0000 </r>
       <r>    3.0925    1.0000 </r>
       <r>    3.7325    1.0000 </r>
       <r>    3.7436    1.0000 </r>
       <r>    4.0985    1.0000 </r>
       <r>    4.9174    1.0000 </r>
       <r>    5.2959    1.0000 </r>
       <r>    7.0820    0.0000 </r>
       <r>    7.5480    0.0000 </r>
       <r>    7.5936    0.0000 </r>
       <r>    7.9077    0.0000 </r>
       <r>    8.2631    0.0000 </r>
      </set>
      <set comment="kpoint 28">
       <r>  -44.0227    1.0000 </r>
       <r>  -44.0221    1.0000 </r>
       <r>  -44.0159    1.0000 </r>
       <r>  -39.6669    1.0000 </r>
       <r>  -39.6628    1.0000 </r>
       <r>  -39.6619    1.0000 </r>
       <r>   -4.6323    1.0000 </r>
       <r>   -4.4503    1.0000 </r>
       <r>    0.9279    1.0000 </r>
       <r>    2.2621    1.0000 </r>
       <r>    2.6865    1.0000 </r>
       <r>    2.8041    1.0000 </r>
       <r>    2.9901    1.0000 </r>
       <r>    3.0486    1.0000 </r>
       <r>    3.7219    1.0000 </r>
       <r>    3.7666    1.0000 </r>
       <r>    4.1135    1.0000 </r>
       <r>    4.9195    1.0000 </r>
       <r>    5.2327    1.0000 </r>
       <r>    7.1208    0.0000 </r>
       <r>    7.5480    0.0000 </r>
       <r>    7.5870    0.0000 </r>
       <r>    7.9071    0.0000 </r>
       <r>    8.1882    0.0000 </r>
      </set>
      <set comment="kpoint 29">
       <r>  -44.0227    1.0000 </r>
       <r>  -44.0221    1.0000 </r>
       <r>  -44.0159    1.0000 </r>
       <r>  -39.6669    1.0000 </r>
       <r>  -39.6628    1.0000 </r>
       <r>  -39.6619    1.0000 </r>
       <r>   -4.6212    1.0000 </r>
       <r>   -4.4447    1.0000 </r>
       <r>    0.9451    1.0000 </r>
       <r>    2.2524    1.0000 </r>
       <r>    2.7023    1.0000 </r>
       <r>    2.8071    1.0000 </r>
       <r>    2.8849    1.0000 </r>
       <r>    3.0652    1.0000 </r>
       <r>    3.7127    1.0000 </r>
       <r>    3.7927    1.0000 </r>
       <r>    4.1259    1.0000 </r>
       <r>    4.9207    1.0000 </r>
       <r>    5.1648    1.0000 </r>
       <r>    7.1496    0.0000 </r>
       <r>    7.5531    0.0000 </r>
       <r>    7.5809    0.0000 </r>
       <r>    7.9060    0.0000 </r>
       <r>    8.1234    0.0000 </r>
      </set>
      <set comment="kpoint 30">
       <r>  -44.0227    1.0000 </r>
       <r>  -44.0222    1.0000 </r>
       <r>  -44.0159    1.0000 </r>
       <r>  -39.6669    1.0000 </r>
       <r>  -39.6628    1.0000 </r>
       <r>  -39.6619    1.0000 </r>
       <r>   -4.6090    1.0000 </r>
       <r>   -4.4392    1.0000 </r>
       <r>    0.9633    1.0000 </r>
       <r>    2.2423    1.0000 </r>
       <r>    2.7150    1.0000 </r>
       <r>    2.7841    1.0000 </r>
       <r>    2.8115    1.0000 </r>
       <r>    3.0812    1.0000 </r>
       <r>    3.7043    1.0000 </r>
       <r>    3.8215    1.0000 </r>
       <r>    4.1361    1.0000 </r>
       <r>    4.9207    1.0000 </r>
       <r>    5.0941    1.0000 </r>
       <r>    7.1645    0.0000 </r>
       <r>    7.5650    0.0000 </r>
       <r>    7.5760    0.0000 </r>
       <r>    7.9043    0.0000 </r>
       <r>    8.0681    0.0000 </r>
      </set>
      <set comment="kpoint 31">
       <r>  -44.0227    1.0000 </r>
       <r>  -44.0222    1.0000 </r>
       <r>  -44.0159    1.0000 </r>
       <r>  -39.6669    1.0000 </r>
       <r>  -39.6627    1.0000 </r>
       <r>  -39.6620    1.0000 </r>
       <r>   -4.5958    1.0000 </r>
       <r>   -4.4339    1.0000 </r>
       <r>    0.9819    1.0000 </r>
       <r>    2.2321    1.0000 </r>
       <r>    2.6642    1.0000 </r>
       <r>    2.7503    1.0000 </r>
       <r>    2.8171    1.0000 </r>
       <r>    3.0960    1.0000 </r>
       <r>    3.6965    1.0000 </r>
       <r>    3.8527    1.0000 </r>
       <r>    4.1443    1.0000 </r>
       <r>    4.9188    1.0000 </r>
       <r>    5.0231    1.0000 </r>
       <r>    7.1638    0.0000 </r>
       <r>    7.5729    0.0000 </r>
       <r>    7.5839    0.0000 </r>
       <r>    7.9016    0.0000 </r>
       <r>    8.0214    0.0000 </r>
      </set>
      <set comment="kpoint 32">
       <r>  -44.0227    1.0000 </r>
       <r>  -44.0222    1.0000 </r>
       <r>  -44.0158    1.0000 </r>
       <r>  -39.6669    1.0000 </r>
       <r>  -39.6627    1.0000 </r>
       <r>  -39.6620    1.0000 </r>
       <r>   -4.5817    1.0000 </r>
       <r>   -4.4292    1.0000 </r>
       <r>    1.0004    1.0000 </r>
       <r>    2.2220    1.0000 </r>
       <r>    2.5687    1.0000 </r>
       <r>    2.7666    1.0000 </r>
       <r>    2.8237    1.0000 </r>
       <r>    3.1092    1.0000 </r>
       <r>    3.6890    1.0000 </r>
       <r>    3.8855    1.0000 </r>
       <r>    4.1506    1.0000 </r>
       <r>    4.9146    1.0000 </r>
       <r>    4.9542    1.0000 </r>
       <r>    7.1484    0.0000 </r>
       <r>    7.5722    0.0000 </r>
       <r>    7.6081    0.0000 </r>
       <r>    7.8975    0.0000 </r>
       <r>    7.9822    0.0000 </r>
      </set>
      <set comment="kpoint 33">
       <r>  -44.0226    1.0000 </r>
       <r>  -44.0223    1.0000 </r>
       <r>  -44.0158    1.0000 </r>
       <r>  -39.6669    1.0000 </r>
       <r>  -39.6627    1.0000 </r>
       <r>  -39.6621    1.0000 </r>
       <r>   -4.5668    1.0000 </r>
       <r>   -4.4255    1.0000 </r>
       <r>    1.0178    1.0000 </r>
       <r>    2.2123    1.0000 </r>
       <r>    2.4775    1.0000 </r>
       <r>    2.7862    1.0000 </r>
       <r>    2.8313    1.0000 </r>
       <r>    3.1204    1.0000 </r>
       <r>    3.6818    1.0000 </r>
       <r>    3.9194    1.0000 </r>
       <r>    4.1551    1.0000 </r>
       <r>    4.8899    1.0000 </r>
       <r>    4.9073    1.0000 </r>
       <r>    7.1216    0.0000 </r>
       <r>    7.5743    0.0000 </r>
       <r>    7.6348    0.0000 </r>
       <r>    7.8912    0.0000 </r>
       <r>    7.9492    0.0000 </r>
      </set>
      <set comment="kpoint 34">
       <r>  -44.0226    1.0000 </r>
       <r>  -44.0223    1.0000 </r>
       <r>  -44.0158    1.0000 </r>
       <r>  -39.6669    1.0000 </r>
       <r>  -39.6626    1.0000 </r>
       <r>  -39.6621    1.0000 </r>
       <r>   -4.5514    1.0000 </r>
       <r>   -4.4231    1.0000 </r>
       <r>    1.0335    1.0000 </r>
       <r>    2.2032    1.0000 </r>
       <r>    2.3950    1.0000 </r>
       <r>    2.8060    1.0000 </r>
       <r>    2.8394    1.0000 </r>
       <r>    3.1293    1.0000 </r>
       <r>    3.6749    1.0000 </r>
       <r>    3.9534    1.0000 </r>
       <r>    4.1578    1.0000 </r>
       <r>    4.8327    1.0000 </r>
       <r>    4.8964    1.0000 </r>
       <r>    7.0871    0.0000 </r>
       <r>    7.5797    0.0000 </r>
       <r>    7.6612    0.0000 </r>
       <r>    7.8822    0.0000 </r>
       <r>    7.9215    0.0000 </r>
      </set>
      <set comment="kpoint 35">
       <r>  -44.0226    1.0000 </r>
       <r>  -44.0223    1.0000 </r>
       <r>  -44.0158    1.0000 </r>
       <r>  -39.6669    1.0000 </r>
       <r>  -39.6626    1.0000 </r>
       <r>  -39.6622    1.0000 </r>
       <r>   -4.5355    1.0000 </r>
       <r>   -4.4224    1.0000 </r>
       <r>    1.0467    1.0000 </r>
       <r>    2.1947    1.0000 </r>
       <r>    2.3235    1.0000 </r>
       <r>    2.8251    1.0000 </r>
       <r>    2.8478    1.0000 </r>
       <r>    3.1358    1.0000 </r>
       <r>    3.6683    1.0000 </r>
       <r>    3.9865    1.0000 </r>
       <r>    4.1584    1.0000 </r>
       <r>    4.7853    1.0000 </r>
       <r>    4.8814    1.0000 </r>
       <r>    7.0491    0.0000 </r>
       <r>    7.5885    0.0000 </r>
       <r>    7.6850    0.0000 </r>
       <r>    7.8697    0.0000 </r>
       <r>    7.8982    0.0000 </r>
      </set>
      <set comment="kpoint 36">
       <r>  -44.0226    1.0000 </r>
       <r>  -44.0224    1.0000 </r>
       <r>  -44.0158    1.0000 </r>
       <r>  -39.6669    1.0000 </r>
       <r>  -39.6626    1.0000 </r>
       <r>  -39.6622    1.0000 </r>
       <r>   -4.5194    1.0000 </r>
       <r>   -4.4237    1.0000 </r>
       <r>    1.0567    1.0000 </r>
       <r>    2.1871    1.0000 </r>
       <r>    2.2646    1.0000 </r>
       <r>    2.8426    1.0000 </r>
       <r>    2.8561    1.0000 </r>
       <r>    3.1397    1.0000 </r>
       <r>    3.6622    1.0000 </r>
       <r>    4.0178    1.0000 </r>
       <r>    4.1565    1.0000 </r>
       <r>    4.7500    1.0000 </r>
       <r>    4.8622    1.0000 </r>
       <r>    7.0116    0.0000 </r>
       <r>    7.6008    0.0000 </r>
       <r>    7.7037    0.0000 </r>
       <r>    7.8545    0.0000 </r>
       <r>    7.8786    0.0000 </r>
      </set>
      <set comment="kpoint 37">
       <r>  -44.0226    1.0000 </r>
       <r>  -44.0224    1.0000 </r>
       <r>  -44.0158    1.0000 </r>
       <r>  -39.6669    1.0000 </r>
       <r>  -39.6625    1.0000 </r>
       <r>  -39.6623    1.0000 </r>
       <r>   -4.5032    1.0000 </r>
       <r>   -4.4274    1.0000 </r>
       <r>    1.0633    1.0000 </r>
       <r>    2.1805    1.0000 </r>
       <r>    2.2196    1.0000 </r>
       <r>    2.8577    1.0000 </r>
       <r>    2.8638    1.0000 </r>
       <r>    3.1414    1.0000 </r>
       <r>    3.6568    1.0000 </r>
       <r>    4.0462    1.0000 </r>
       <r>    4.1519    1.0000 </r>
       <r>    4.7286    1.0000 </r>
       <r>    4.8388    1.0000 </r>
       <r>    6.9783    0.0000 </r>
       <r>    7.6165    0.0000 </r>
       <r>    7.7145    0.0000 </r>
       <r>    7.8397    0.0000 </r>
       <r>    7.8623    0.0000 </r>
      </set>
      <set comment="kpoint 38">
       <r>  -44.0225    1.0000 </r>
       <r>  -44.0224    1.0000 </r>
       <r>  -44.0158    1.0000 </r>
       <r>  -39.6669    1.0000 </r>
       <r>  -39.6625    1.0000 </r>
       <r>  -39.6623    1.0000 </r>
       <r>   -4.4872    1.0000 </r>
       <r>   -4.4339    1.0000 </r>
       <r>    1.0667    1.0000 </r>
       <r>    2.1750    1.0000 </r>
       <r>    2.1887    1.0000 </r>
       <r>    2.8693    1.0000 </r>
       <r>    2.8704    1.0000 </r>
       <r>    3.1414    1.0000 </r>
       <r>    3.6526    1.0000 </r>
       <r>    4.0714    1.0000 </r>
       <r>    4.1437    1.0000 </r>
       <r>    4.7222    1.0000 </r>
       <r>    4.8120    1.0000 </r>
       <r>    6.9522    0.0000 </r>
       <r>    7.6354    0.0000 </r>
       <r>    7.7137    0.0000 </r>
       <r>    7.8300    0.0000 </r>
       <r>    7.8488    0.0000 </r>
      </set>
      <set comment="kpoint 39">
       <r>  -44.0225    1.0000 </r>
       <r>  -44.0225    1.0000 </r>
       <r>  -44.0158    1.0000 </r>
       <r>  -39.6669    1.0000 </r>
       <r>  -39.6625    1.0000 </r>
       <r>  -39.6624    1.0000 </r>
       <r>   -4.4716    1.0000 </r>
       <r>   -4.4435    1.0000 </r>
       <r>    1.0677    1.0000 </r>
       <r>    2.1707    1.0000 </r>
       <r>    2.1718    1.0000 </r>
       <r>    2.8754    1.0000 </r>
       <r>    2.8765    1.0000 </r>
       <r>    3.1406    1.0000 </r>
       <r>    3.6497    1.0000 </r>
       <r>    4.0938    1.0000 </r>
       <r>    4.1314    1.0000 </r>
       <r>    4.7309    1.0000 </r>
       <r>    4.7830    1.0000 </r>
       <r>    6.9355    0.0000 </r>
       <r>    7.6569    0.0000 </r>
       <r>    7.7009    0.0000 </r>
       <r>    7.8281    0.0000 </r>
       <r>    7.8384    0.0000 </r>
      </set>
      <set comment="kpoint 40">
       <r>  -44.0225    1.0000 </r>
       <r>  -44.0225    1.0000 </r>
       <r>  -44.0158    1.0000 </r>
       <r>  -39.6669    1.0000 </r>
       <r>  -39.6624    1.0000 </r>
       <r>  -39.6624    1.0000 </r>
       <r>   -4.4565    1.0000 </r>
       <r>   -4.4565    1.0000 </r>
       <r>    1.0677    1.0000 </r>
       <r>    2.1679    1.0000 </r>
       <r>    2.1679    1.0000 </r>
       <r>    2.8782    1.0000 </r>
       <r>    2.8782    1.0000 </r>
       <r>    3.1400    1.0000 </r>
       <r>    3.6487    1.0000 </r>
       <r>    4.1142    1.0000 </r>
       <r>    4.1142    1.0000 </r>
       <r>    4.7535    1.0000 </r>
       <r>    4.7535    1.0000 </r>
       <r>    6.9298    0.0000 </r>
       <r>    7.6800    0.0000 </r>
       <r>    7.6800    0.0000 </r>
       <r>    7.8315    0.0000 </r>
       <r>    7.8315    0.0000 </r>
      </set>
      <set comment="kpoint 41">
       <r>  -44.0225    1.0000 </r>
       <r>  -44.0225    1.0000 </r>
       <r>  -44.0158    1.0000 </r>
       <r>  -39.6669    1.0000 </r>
       <r>  -39.6624    1.0000 </r>
       <r>  -39.6624    1.0000 </r>
       <r>   -4.4565    1.0000 </r>
       <r>   -4.4565    1.0000 </r>
       <r>    1.0677    1.0000 </r>
       <r>    2.1679    1.0000 </r>
       <r>    2.1679    1.0000 </r>
       <r>    2.8782    1.0000 </r>
       <r>    2.8782    1.0000 </r>
       <r>    3.1400    1.0000 </r>
       <r>    3.6487    1.0000 </r>
       <r>    4.1142    1.0000 </r>
       <r>    4.1142    1.0000 </r>
       <r>    4.7535    1.0000 </r>
       <r>    4.7535    1.0000 </r>
       <r>    6.9298    0.0000 </r>
       <r>    7.6800    0.0000 </r>
       <r>    7.6800    0.0000 </r>
       <r>    7.8315    0.0000 </r>
       <r>    7.8315    0.0000 </r>
      </set>
      <set comment="kpoint 42">
       <r>  -44.0225    1.0000 </r>
       <r>  -44.0224    1.0000 </r>
       <r>  -44.0158    1.0000 </r>
       <r>  -39.6669    1.0000 </r>
       <r>  -39.6625    1.0000 </r>
       <r>  -39.6623    1.0000 </r>
       <r>   -4.4936    1.0000 </r>
       <r>   -4.4286    1.0000 </r>
       <r>    1.0714    1.0000 </r>
       <r>    2.1668    1.0000 </r>
       <r>    2.1928    1.0000 </r>
       <r>    2.8606    1.0000 </r>
       <r>    2.8759    1.0000 </r>
       <r>    3.1443    1.0000 </r>
       <r>    3.6535    1.0000 </r>
       <r>    4.0631    1.0000 </r>
       <r>    4.1546    1.0000 </r>
       <r>    4.7013    1.0000 </r>
       <r>    4.8332    1.0000 </r>
       <r>    6.9527    0.0000 </r>
       <r>    7.6299    0.0000 </r>
       <r>    7.7216    0.0000 </r>
       <r>    7.8357    0.0000 </r>
       <r>    7.8419    0.0000 </r>
      </set>
      <set comment="kpoint 43">
       <r>  -44.0226    1.0000 </r>
       <r>  -44.0224    1.0000 </r>
       <r>  -44.0158    1.0000 </r>
       <r>  -39.6669    1.0000 </r>
       <r>  -39.6625    1.0000 </r>
       <r>  -39.6622    1.0000 </r>
       <r>   -4.5465    1.0000 </r>
       <r>   -4.4052    1.0000 </r>
       <r>    1.0919    1.0000 </r>
       <r>    2.1726    1.0000 </r>
       <r>    2.2489    1.0000 </r>
       <r>    2.8098    1.0000 </r>
       <r>    2.8656    1.0000 </r>
       <r>    3.1603    1.0000 </r>
       <r>    3.6687    1.0000 </r>
       <r>    3.9911    1.0000 </r>
       <r>    4.2019    1.0000 </r>
       <r>    4.6693    1.0000 </r>
       <r>    4.9455    1.0000 </r>
       <r>    7.0170    0.0000 </r>
       <r>    7.5812    0.0000 </r>
       <r>    7.7369    0.0000 </r>
       <r>    7.8491    0.0000 </r>
       <r>    7.8808    0.0000 </r>
      </set>
      <set comment="kpoint 44">
       <r>  -44.0226    1.0000 </r>
       <r>  -44.0223    1.0000 </r>
       <r>  -44.0159    1.0000 </r>
       <r>  -39.6669    1.0000 </r>
       <r>  -39.6626    1.0000 </r>
       <r>  -39.6621    1.0000 </r>
       <r>   -4.6153    1.0000 </r>
       <r>   -4.3876    1.0000 </r>
       <r>    1.1402    1.0000 </r>
       <r>    2.1862    1.0000 </r>
       <r>    2.3207    1.0000 </r>
       <r>    2.7249    1.0000 </r>
       <r>    2.8551    1.0000 </r>
       <r>    3.1885    1.0000 </r>
       <r>    3.6936    1.0000 </r>
       <r>    3.9074    1.0000 </r>
       <r>    4.2604    1.0000 </r>
       <r>    4.6631    1.0000 </r>
       <r>    5.0784    1.0000 </r>
       <r>    7.1090    0.0000 </r>
       <r>    7.5422    0.0000 </r>
       <r>    7.7307    0.0000 </r>
       <r>    7.8507    0.0000 </r>
       <r>    7.9572    0.0000 </r>
      </set>
      <set comment="kpoint 45">
       <r>  -44.0226    1.0000 </r>
       <r>  -44.0222    1.0000 </r>
       <r>  -44.0159    1.0000 </r>
       <r>  -39.6669    1.0000 </r>
       <r>  -39.6626    1.0000 </r>
       <r>  -39.6621    1.0000 </r>
       <r>   -4.6988    1.0000 </r>
       <r>   -4.3768    1.0000 </r>
       <r>    1.2231    1.0000 </r>
       <r>    2.2085    1.0000 </r>
       <r>    2.3856    1.0000 </r>
       <r>    2.6199    1.0000 </r>
       <r>    2.8533    1.0000 </r>
       <r>    3.2265    1.0000 </r>
       <r>    3.7253    1.0000 </r>
       <r>    3.8243    1.0000 </r>
       <r>    4.3308    1.0000 </r>
       <r>    4.6815    1.0000 </r>
       <r>    5.2238    1.0000 </r>
       <r>    7.2032    0.0000 </r>
       <r>    7.5249    0.0000 </r>
       <r>    7.7160    0.0000 </r>
       <r>    7.8461    0.0000 </r>
       <r>    8.0459    0.0000 </r>
      </set>
      <set comment="kpoint 46">
       <r>  -44.0226    1.0000 </r>
       <r>  -44.0222    1.0000 </r>
       <r>  -44.0159    1.0000 </r>
       <r>  -39.6669    1.0000 </r>
       <r>  -39.6626    1.0000 </r>
       <r>  -39.6620    1.0000 </r>
       <r>   -4.7948    1.0000 </r>
       <r>   -4.3733    1.0000 </r>
       <r>    1.3432    1.0000 </r>
       <r>    2.2394    1.0000 </r>
       <r>    2.3646    1.0000 </r>
       <r>    2.5729    1.0000 </r>
       <r>    2.8669    1.0000 </r>
       <r>    3.2727    1.0000 </r>
       <r>    3.7416    1.0000 </r>
       <r>    3.7682    1.0000 </r>
       <r>    4.4120    1.0000 </r>
       <r>    4.7211    1.0000 </r>
       <r>    5.3760    1.0000 </r>
       <r>    7.2626    0.0000 </r>
       <r>    7.5483    0.0000 </r>
       <r>    7.6956    0.0000 </r>
       <r>    7.8358    0.0000 </r>
       <r>    8.1365    0.0000 </r>
      </set>
      <set comment="kpoint 47">
       <r>  -44.0226    1.0000 </r>
       <r>  -44.0221    1.0000 </r>
       <r>  -44.0159    1.0000 </r>
       <r>  -39.6669    1.0000 </r>
       <r>  -39.6626    1.0000 </r>
       <r>  -39.6619    1.0000 </r>
       <r>   -4.9004    1.0000 </r>
       <r>   -4.3774    1.0000 </r>
       <r>    1.4999    1.0000 </r>
       <r>    2.2229    1.0000 </r>
       <r>    2.2785    1.0000 </r>
       <r>    2.6223    1.0000 </r>
       <r>    2.8994    1.0000 </r>
       <r>    3.3270    1.0000 </r>
       <r>    3.6818    1.0000 </r>
       <r>    3.8001    1.0000 </r>
       <r>    4.5027    1.0000 </r>
       <r>    4.7786    1.0000 </r>
       <r>    5.5311    1.0000 </r>
       <r>    7.2752    0.0000 </r>
       <r>    7.6072    0.0000 </r>
       <r>    7.6692    0.0000 </r>
       <r>    7.8216    0.0000 </r>
       <r>    8.2204    0.0000 </r>
      </set>
      <set comment="kpoint 48">
       <r>  -44.0225    1.0000 </r>
       <r>  -44.0221    1.0000 </r>
       <r>  -44.0159    1.0000 </r>
       <r>  -39.6669    1.0000 </r>
       <r>  -39.6625    1.0000 </r>
       <r>  -39.6618    1.0000 </r>
       <r>   -5.0123    1.0000 </r>
       <r>   -4.3886    1.0000 </r>
       <r>    1.6905    1.0000 </r>
       <r>    2.0485    1.0000 </r>
       <r>    2.3243    1.0000 </r>
       <r>    2.6854    1.0000 </r>
       <r>    2.9514    1.0000 </r>
       <r>    3.3909    1.0000 </r>
       <r>    3.6290    1.0000 </r>
       <r>    3.8357    1.0000 </r>
       <r>    4.6017    1.0000 </r>
       <r>    4.8501    1.0000 </r>
       <r>    5.6850    1.0000 </r>
       <r>    7.2667    0.0000 </r>
       <r>    7.6359    0.0000 </r>
       <r>    7.6651    0.0000 </r>
       <r>    7.8098    0.0000 </r>
       <r>    8.2882    0.0000 </r>
      </set>
      <set comment="kpoint 49">
       <r>  -44.0225    1.0000 </r>
       <r>  -44.0220    1.0000 </r>
       <r>  -44.0159    1.0000 </r>
       <r>  -39.6670    1.0000 </r>
       <r>  -39.6624    1.0000 </r>
       <r>  -39.6617    1.0000 </r>
       <r>   -5.1271    1.0000 </r>
       <r>   -4.4063    1.0000 </r>
       <r>    1.8558    1.0000 </r>
       <r>    1.9227    1.0000 </r>
       <r>    2.3745    1.0000 </r>
       <r>    2.7407    1.0000 </r>
       <r>    3.0202    1.0000 </r>
       <r>    3.4683    1.0000 </r>
       <r>    3.5865    1.0000 </r>
       <r>    3.8714    1.0000 </r>
       <r>    4.7079    1.0000 </r>
       <r>    4.9308    1.0000 </r>
       <r>    5.8341    1.0000 </r>
       <r>    7.2556    0.0000 </r>
       <r>    7.5953    0.0000 </r>
       <r>    7.6934    0.0000 </r>
       <r>    7.8182    0.0000 </r>
       <r>    8.3310    0.0000 </r>
      </set>
      <set comment="kpoint 50">
       <r>  -44.0224    1.0000 </r>
       <r>  -44.0220    1.0000 </r>
       <r>  -44.0159    1.0000 </r>
       <r>  -39.6670    1.0000 </r>
       <r>  -39.6623    1.0000 </r>
       <r>  -39.6617    1.0000 </r>
       <r>   -5.2416    1.0000 </r>
       <r>   -4.4293    1.0000 </r>
       <r>    1.6852    1.0000 </r>
       <r>    2.1590    1.0000 </r>
       <r>    2.4272    1.0000 </r>
       <r>    2.7843    1.0000 </r>
       <r>    3.0989    1.0000 </r>
       <r>    3.5534    1.0000 </r>
       <r>    3.5654    1.0000 </r>
       <r>    3.9099    1.0000 </r>
       <r>    4.8206    1.0000 </r>
       <r>    5.0149    1.0000 </r>
       <r>    5.9740    1.0000 </r>
       <r>    7.2492    0.0000 </r>
       <r>    7.5480    0.0000 </r>
       <r>    7.6843    0.0000 </r>
       <r>    7.8592    0.0000 </r>
       <r>    8.3427    0.0000 </r>
      </set>
      <set comment="kpoint 51">
       <r>  -44.0223    1.0000 </r>
       <r>  -44.0219    1.0000 </r>
       <r>  -44.0160    1.0000 </r>
       <r>  -39.6670    1.0000 </r>
       <r>  -39.6622    1.0000 </r>
       <r>  -39.6616    1.0000 </r>
       <r>   -5.3530    1.0000 </r>
       <r>   -4.4562    1.0000 </r>
       <r>    1.5150    1.0000 </r>
       <r>    2.4159    1.0000 </r>
       <r>    2.4805    1.0000 </r>
       <r>    2.8169    1.0000 </r>
       <r>    3.1783    1.0000 </r>
       <r>    3.5290    1.0000 </r>
       <r>    3.6891    1.0000 </r>
       <r>    3.9571    1.0000 </r>
       <r>    4.9388    1.0000 </r>
       <r>    5.0965    1.0000 </r>
       <r>    6.0994    1.0000 </r>
       <r>    7.2491    0.0000 </r>
       <r>    7.4963    0.0000 </r>
       <r>    7.6575    0.0000 </r>
       <r>    7.9212    0.0000 </r>
       <r>    8.3228    0.0000 </r>
      </set>
      <set comment="kpoint 52">
       <r>  -44.0222    1.0000 </r>
       <r>  -44.0219    1.0000 </r>
       <r>  -44.0160    1.0000 </r>
       <r>  -39.6671    1.0000 </r>
       <r>  -39.6620    1.0000 </r>
       <r>  -39.6615    1.0000 </r>
       <r>   -5.4585    1.0000 </r>
       <r>   -4.4855    1.0000 </r>
       <r>    1.3564    1.0000 </r>
       <r>    2.5331    1.0000 </r>
       <r>    2.6632    1.0000 </r>
       <r>    2.8495    1.0000 </r>
       <r>    3.2503    1.0000 </r>
       <r>    3.5118    1.0000 </r>
       <r>    3.8436    1.0000 </r>
       <r>    4.0236    1.0000 </r>
       <r>    5.0612    1.0000 </r>
       <r>    5.1702    1.0000 </r>
       <r>    6.2037    1.0000 </r>
       <r>    7.2540    0.0000 </r>
       <r>    7.4441    0.0000 </r>
       <r>    7.6252    0.0000 </r>
       <r>    7.9983    0.0000 </r>
       <r>    8.2783    0.0000 </r>
      </set>
      <set comment="kpoint 53">
       <r>  -44.0221    1.0000 </r>
       <r>  -44.0218    1.0000 </r>
       <r>  -44.0160    1.0000 </r>
       <r>  -39.6671    1.0000 </r>
       <r>  -39.6619    1.0000 </r>
       <r>  -39.6615    1.0000 </r>
       <r>   -5.5561    1.0000 </r>
       <r>   -4.5156    1.0000 </r>
       <r>    1.2122    1.0000 </r>
       <r>    2.5840    1.0000 </r>
       <r>    2.7971    1.0000 </r>
       <r>    2.9678    1.0000 </r>
       <r>    3.3115    1.0000 </r>
       <r>    3.5005    1.0000 </r>
       <r>    4.0272    1.0000 </r>
       <r>    4.1260    1.0000 </r>
       <r>    5.1862    1.0000 </r>
       <r>    5.2330    1.0000 </r>
       <r>    6.2789    1.0000 </r>
       <r>    7.2615    0.0000 </r>
       <r>    7.3967    0.0000 </r>
       <r>    7.5915    0.0000 </r>
       <r>    8.0893    0.0000 </r>
       <r>    8.2227    0.0000 </r>
      </set>
      <set comment="kpoint 54">
       <r>  -44.0221    1.0000 </r>
       <r>  -44.0218    1.0000 </r>
       <r>  -44.0160    1.0000 </r>
       <r>  -39.6671    1.0000 </r>
       <r>  -39.6618    1.0000 </r>
       <r>  -39.6614    1.0000 </r>
       <r>   -5.6439    1.0000 </r>
       <r>   -4.5451    1.0000 </r>
       <r>    1.0843    1.0000 </r>
       <r>    2.6319    1.0000 </r>
       <r>    2.8144    1.0000 </r>
       <r>    3.1529    1.0000 </r>
       <r>    3.3619    1.0000 </r>
       <r>    3.4937    1.0000 </r>
       <r>    4.2331    1.0000 </r>
       <r>    4.2845    1.0000 </r>
       <r>    5.2839    1.0000 </r>
       <r>    5.3114    1.0000 </r>
       <r>    6.3167    1.0000 </r>
       <r>    7.2689    0.0000 </r>
       <r>    7.3580    0.0000 </r>
       <r>    7.5585    0.0000 </r>
       <r>    8.1740    0.0000 </r>
       <r>    8.1909    0.0000 </r>
      </set>
      <set comment="kpoint 55">
       <r>  -44.0220    1.0000 </r>
       <r>  -44.0218    1.0000 </r>
       <r>  -44.0160    1.0000 </r>
       <r>  -39.6672    1.0000 </r>
       <r>  -39.6617    1.0000 </r>
       <r>  -39.6614    1.0000 </r>
       <r>   -5.7205    1.0000 </r>
       <r>   -4.5724    1.0000 </r>
       <r>    0.9742    1.0000 </r>
       <r>    2.6757    1.0000 </r>
       <r>    2.8134    1.0000 </r>
       <r>    3.2934    1.0000 </r>
       <r>    3.4028    1.0000 </r>
       <r>    3.4898    1.0000 </r>
       <r>    4.4526    1.0000 </r>
       <r>    4.5081    1.0000 </r>
       <r>    5.3247    1.0000 </r>
       <r>    5.4329    1.0000 </r>
       <r>    6.3120    1.0000 </r>
       <r>    7.2738    0.0000 </r>
       <r>    7.3283    0.0000 </r>
       <r>    7.5268    0.0000 </r>
       <r>    8.1525    0.0000 </r>
       <r>    8.2966    0.0000 </r>
      </set>
      <set comment="kpoint 56">
       <r>  -44.0219    1.0000 </r>
       <r>  -44.0218    1.0000 </r>
       <r>  -44.0160    1.0000 </r>
       <r>  -39.6672    1.0000 </r>
       <r>  -39.6615    1.0000 </r>
       <r>  -39.6613    1.0000 </r>
       <r>   -5.7847    1.0000 </r>
       <r>   -4.5965    1.0000 </r>
       <r>    0.8828    1.0000 </r>
       <r>    2.7142    1.0000 </r>
       <r>    2.8077    1.0000 </r>
       <r>    3.3827    1.0000 </r>
       <r>    3.4354    1.0000 </r>
       <r>    3.4880    1.0000 </r>
       <r>    4.6762    1.0000 </r>
       <r>    4.7798    1.0000 </r>
       <r>    5.3608    1.0000 </r>
       <r>    5.5457    1.0000 </r>
       <r>    6.2660    1.0000 </r>
       <r>    7.2752    0.0000 </r>
       <r>    7.3032    0.0000 </r>
       <r>    7.4962    0.0000 </r>
       <r>    8.1763    0.0000 </r>
       <r>    8.3979    0.0000 </r>
      </set>
      <set comment="kpoint 57">
       <r>  -44.0218    1.0000 </r>
       <r>  -44.0217    1.0000 </r>
       <r>  -44.0161    1.0000 </r>
       <r>  -39.6672    1.0000 </r>
       <r>  -39.6614    1.0000 </r>
       <r>  -39.6613    1.0000 </r>
       <r>   -5.8354    1.0000 </r>
       <r>   -4.6164    1.0000 </r>
       <r>    0.8111    1.0000 </r>
       <r>    2.7458    1.0000 </r>
       <r>    2.8008    1.0000 </r>
       <r>    3.4352    1.0000 </r>
       <r>    3.4603    1.0000 </r>
       <r>    3.4874    1.0000 </r>
       <r>    4.8934    1.0000 </r>
       <r>    5.0540    1.0000 </r>
       <r>    5.4094    1.0000 </r>
       <r>    5.6427    1.0000 </r>
       <r>    6.1870    1.0000 </r>
       <r>    7.2717    0.0000 </r>
       <r>    7.2793    0.0000 </r>
       <r>    7.4660    0.0000 </r>
       <r>    8.2543    0.0000 </r>
       <r>    8.4859    0.0000 </r>
      </set>
      <set comment="kpoint 58">
       <r>  -44.0218    1.0000 </r>
       <r>  -44.0217    1.0000 </r>
       <r>  -44.0161    1.0000 </r>
       <r>  -39.6672    1.0000 </r>
       <r>  -39.6614    1.0000 </r>
       <r>  -39.6613    1.0000 </r>
       <r>   -5.8722    1.0000 </r>
       <r>   -4.6311    1.0000 </r>
       <r>    0.7595    1.0000 </r>
       <r>    2.7695    1.0000 </r>
       <r>    2.7947    1.0000 </r>
       <r>    3.4639    1.0000 </r>
       <r>    3.4780    1.0000 </r>
       <r>    3.4881    1.0000 </r>
       <r>    5.0909    1.0000 </r>
       <r>    5.2381    1.0000 </r>
       <r>    5.5253    1.0000 </r>
       <r>    5.7161    1.0000 </r>
       <r>    6.0897    1.0000 </r>
       <r>    7.2578    0.0000 </r>
       <r>    7.2620    0.0000 </r>
       <r>    7.4362    0.0000 </r>
       <r>    8.3816    0.0000 </r>
       <r>    8.5530    0.0000 </r>
      </set>
      <set comment="kpoint 59">
       <r>  -44.0217    1.0000 </r>
       <r>  -44.0217    1.0000 </r>
       <r>  -44.0161    1.0000 </r>
       <r>  -39.6672    1.0000 </r>
       <r>  -39.6613    1.0000 </r>
       <r>  -39.6613    1.0000 </r>
       <r>   -5.8944    1.0000 </r>
       <r>   -4.6402    1.0000 </r>
       <r>    0.7284    1.0000 </r>
       <r>    2.7842    1.0000 </r>
       <r>    2.7906    1.0000 </r>
       <r>    3.4766    1.0000 </r>
       <r>    3.4885    1.0000 </r>
       <r>    3.4903    1.0000 </r>
       <r>    5.2450    1.0000 </r>
       <r>    5.2970    1.0000 </r>
       <r>    5.6922    1.0000 </r>
       <r>    5.7575    1.0000 </r>
       <r>    6.0006    1.0000 </r>
       <r>    7.2428    0.0000 </r>
       <r>    7.2466    0.0000 </r>
       <r>    7.4116    0.0000 </r>
       <r>    8.5316    0.0000 </r>
       <r>    8.5859    0.0000 </r>
      </set>
      <set comment="kpoint 60">
       <r>  -44.0217    1.0000 </r>
       <r>  -44.0217    1.0000 </r>
       <r>  -44.0161    1.0000 </r>
       <r>  -39.6672    1.0000 </r>
       <r>  -39.6613    1.0000 </r>
       <r>  -39.6613    1.0000 </r>
       <r>   -5.9019    1.0000 </r>
       <r>   -4.6432    1.0000 </r>
       <r>    0.7180    1.0000 </r>
       <r>    2.7892    1.0000 </r>
       <r>    2.7892    1.0000 </r>
       <r>    3.4795    1.0000 </r>
       <r>    3.4921    1.0000 </r>
       <r>    3.4921    1.0000 </r>
       <r>    5.3089    1.0000 </r>
       <r>    5.3089    1.0000 </r>
       <r>    5.7673    1.0000 </r>
       <r>    5.7673    1.0000 </r>
       <r>    5.9628    1.0000 </r>
       <r>    7.2375    0.0000 </r>
       <r>    7.2375    0.0000 </r>
       <r>    7.4018    0.0000 </r>
       <r>    8.5319    0.0000 </r>
       <r>    8.6160    0.0000 </r>
      </set>
     </set>
     <set comment="spin 2">
      <set comment="kpoint 1">
       <r>  -44.0217    1.0000 </r>
       <r>  -44.0217    1.0000 </r>
       <r>  -44.0161    1.0000 </r>
       <r>  -39.6672    1.0000 </r>
       <r>  -39.6613    1.0000 </r>
       <r>  -39.6613    1.0000 </r>
       <r>   -5.9019    1.0000 </r>
       <r>   -4.6432    1.0000 </r>
       <r>    0.7180    1.0000 </r>
       <r>    2.7892    1.0000 </r>
       <r>    2.7892    1.0000 </r>
       <r>    3.4795    1.0000 </r>
       <r>    3.4921    1.0000 </r>
       <r>    3.4921    1.0000 </r>
       <r>    5.3089    1.0000 </r>
       <r>    5.3089    1.0000 </r>
       <r>    5.7673    1.0000 </r>
       <r>    5.7673    1.0000 </r>
       <r>    5.9628    1.0000 </r>
       <r>    7.2375    0.0000 </r>
       <r>    7.2375    0.0000 </r>
       <r>    7.4018    0.0000 </r>
       <r>    8.5318    0.0000 </r>
       <r>    8.6160    0.0000 </r>
      </set>
      <set comment="kpoint 2">
       <r>  -44.0217    1.0000 </r>
       <r>  -44.0217    1.0000 </r>
       <r>  -44.0161    1.0000 </r>
       <r>  -39.6672    1.0000 </r>
       <r>  -39.6613    1.0000 </r>
       <r>  -39.6613    1.0000 </r>
       <r>   -5.8963    1.0000 </r>
       <r>   -4.6409    1.0000 </r>
       <r>    0.7258    1.0000 </r>
       <r>    2.7855    1.0000 </r>
       <r>    2.7903    1.0000 </r>
       <r>    3.4774    1.0000 </r>
       <r>    3.4896    1.0000 </r>
       <r>    3.4905    1.0000 </r>
       <r>    5.2595    1.0000 </r>
       <r>    5.3009    1.0000 </r>
       <r>    5.7083    1.0000 </r>
       <r>    5.7622    1.0000 </r>
       <r>    5.9914    1.0000 </r>
       <r>    7.2406    0.0000 </r>
       <r>    7.2455    0.0000 </r>
       <r>    7.4092    0.0000 </r>
       <r>    8.5443    0.0000 </r>
       <r>    8.5916    0.0000 </r>
      </set>
      <set comment="kpoint 3">
       <r>  -44.0218    1.0000 </r>
       <r>  -44.0217    1.0000 </r>
       <r>  -44.0161    1.0000 </r>
       <r>  -39.6672    1.0000 </r>
       <r>  -39.6613    1.0000 </r>
       <r>  -39.6613    1.0000 </r>
       <r>   -5.8796    1.0000 </r>
       <r>   -4.6341    1.0000 </r>
       <r>    0.7491    1.0000 </r>
       <r>    2.7743    1.0000 </r>
       <r>    2.7935    1.0000 </r>
       <r>    3.4678    1.0000 </r>
       <r>    3.4850    1.0000 </r>
       <r>    3.4859    1.0000 </r>
       <r>    5.1312    1.0000 </r>
       <r>    5.2770    1.0000 </r>
       <r>    5.5498    1.0000 </r>
       <r>    5.7480    1.0000 </r>
       <r>    6.0597    1.0000 </r>
       <r>    7.2430    0.0000 </r>
       <r>    7.2683    0.0000 </r>
       <r>    7.4285    0.0000 </r>
       <r>    8.4109    0.0000 </r>
       <r>    8.5907    0.0000 </r>
      </set>
      <set comment="kpoint 4">
       <r>  -44.0218    1.0000 </r>
       <r>  -44.0218    1.0000 </r>
       <r>  -44.0161    1.0000 </r>
       <r>  -39.6672    1.0000 </r>
       <r>  -39.6614    1.0000 </r>
       <r>  -39.6613    1.0000 </r>
       <r>   -5.8519    1.0000 </r>
       <r>   -4.6229    1.0000 </r>
       <r>    0.7879    1.0000 </r>
       <r>    2.7560    1.0000 </r>
       <r>    2.7986    1.0000 </r>
       <r>    3.4449    1.0000 </r>
       <r>    3.4786    1.0000 </r>
       <r>    3.4812    1.0000 </r>
       <r>    4.9514    1.0000 </r>
       <r>    5.2372    1.0000 </r>
       <r>    5.3384    1.0000 </r>
       <r>    5.7277    1.0000 </r>
       <r>    6.1353    1.0000 </r>
       <r>    7.2366    0.0000 </r>
       <r>    7.3022    0.0000 </r>
       <r>    7.4525    0.0000 </r>
       <r>    8.2769    0.0000 </r>
       <r>    8.5645    0.0000 </r>
      </set>
      <set comment="kpoint 5">
       <r>  -44.0219    1.0000 </r>
       <r>  -44.0218    1.0000 </r>
       <r>  -44.0161    1.0000 </r>
       <r>  -39.6672    1.0000 </r>
       <r>  -39.6615    1.0000 </r>
       <r>  -39.6614    1.0000 </r>
       <r>   -5.8136    1.0000 </r>
       <r>   -4.6078    1.0000 </r>
       <r>    0.8419    1.0000 </r>
       <r>    2.7308    1.0000 </r>
       <r>    2.8053    1.0000 </r>
       <r>    3.4041    1.0000 </r>
       <r>    3.4693    1.0000 </r>
       <r>    3.4773    1.0000 </r>
       <r>    4.7368    1.0000 </r>
       <r>    5.1158    1.0000 </r>
       <r>    5.1820    1.0000 </r>
       <r>    5.7046    1.0000 </r>
       <r>    6.1965    1.0000 </r>
       <r>    7.2203    0.0000 </r>
       <r>    7.3425    0.0000 </r>
       <r>    7.4764    0.0000 </r>
       <r>    8.1696    0.0000 </r>
       <r>    8.5366    0.0000 </r>
      </set>
      <set comment="kpoint 6">
       <r>  -44.0219    1.0000 </r>
       <r>  -44.0218    1.0000 </r>
       <r>  -44.0160    1.0000 </r>
       <r>  -39.6672    1.0000 </r>
       <r>  -39.6616    1.0000 </r>
       <r>  -39.6614    1.0000 </r>
       <r>   -5.7649    1.0000 </r>
       <r>   -4.5891    1.0000 </r>
       <r>    0.9109    1.0000 </r>
       <r>    2.6990    1.0000 </r>
       <r>    2.8131    1.0000 </r>
       <r>    3.3370    1.0000 </r>
       <r>    3.4588    1.0000 </r>
       <r>    3.4727    1.0000 </r>
       <r>    4.5072    1.0000 </r>
       <r>    4.9035    1.0000 </r>
       <r>    5.1132    1.0000 </r>
       <r>    5.6812    1.0000 </r>
       <r>    6.2309    1.0000 </r>
       <r>    7.1950    0.0000 </r>
       <r>    7.3842    0.0000 </r>
       <r>    7.4994    0.0000 </r>
       <r>    8.0996    0.0000 </r>
       <r>    8.5128    0.0000 </r>
      </set>
      <set comment="kpoint 7">
       <r>  -44.0220    1.0000 </r>
       <r>  -44.0218    1.0000 </r>
       <r>  -44.0160    1.0000 </r>
       <r>  -39.6672    1.0000 </r>
       <r>  -39.6617    1.0000 </r>
       <r>  -39.6614    1.0000 </r>
       <r>   -5.7065    1.0000 </r>
       <r>   -4.5674    1.0000 </r>
       <r>    0.9943    1.0000 </r>
       <r>    2.6605    1.0000 </r>
       <r>    2.8216    1.0000 </r>
       <r>    3.2314    1.0000 </r>
       <r>    3.4481    1.0000 </r>
       <r>    3.4670    1.0000 </r>
       <r>    4.2908    1.0000 </r>
       <r>    4.7065    1.0000 </r>
       <r>    5.0332    1.0000 </r>
       <r>    5.6586    1.0000 </r>
       <r>    6.2320    1.0000 </r>
       <r>    7.1618    0.0000 </r>
       <r>    7.4232    0.0000 </r>
       <r>    7.5222    0.0000 </r>
       <r>    8.0700    0.0000 </r>
       <r>    8.4974    0.0000 </r>
      </set>
      <set comment="kpoint 8">
       <r>  -44.0221    1.0000 </r>
       <r>  -44.0218    1.0000 </r>
       <r>  -44.0160    1.0000 </r>
       <r>  -39.6671    1.0000 </r>
       <r>  -39.6618    1.0000 </r>
       <r>  -39.6614    1.0000 </r>
       <r>   -5.6388    1.0000 </r>
       <r>   -4.5436    1.0000 </r>
       <r>    1.0917    1.0000 </r>
       <r>    2.6135    1.0000 </r>
       <r>    2.8298    1.0000 </r>
       <r>    3.0785    1.0000 </r>
       <r>    3.4387    1.0000 </r>
       <r>    3.4601    1.0000 </r>
       <r>    4.1112    1.0000 </r>
       <r>    4.5254    1.0000 </r>
       <r>    4.9449    1.0000 </r>
       <r>    5.6372    1.0000 </r>
       <r>    6.1982    1.0000 </r>
       <r>    7.1238    0.0000 </r>
       <r>    7.4570    0.0000 </r>
       <r>    7.5455    0.0000 </r>
       <r>    8.0757    0.0000 </r>
       <r>    8.4933    0.0000 </r>
      </set>
      <set comment="kpoint 9">
       <r>  -44.0221    1.0000 </r>
       <r>  -44.0218    1.0000 </r>
       <r>  -44.0160    1.0000 </r>
       <r>  -39.6671    1.0000 </r>
       <r>  -39.6619    1.0000 </r>
       <r>  -39.6615    1.0000 </r>
       <r>   -5.5629    1.0000 </r>
       <r>   -4.5186    1.0000 </r>
       <r>    1.2022    1.0000 </r>
       <r>    2.5509    1.0000 </r>
       <r>    2.8371    1.0000 </r>
       <r>    2.8890    1.0000 </r>
       <r>    3.4320    1.0000 </r>
       <r>    3.4516    1.0000 </r>
       <r>    3.9728    1.0000 </r>
       <r>    4.3632    1.0000 </r>
       <r>    4.8510    1.0000 </r>
       <r>    5.6170    1.0000 </r>
       <r>    6.1319    1.0000 </r>
       <r>    7.0845    0.0000 </r>
       <r>    7.4846    0.0000 </r>
       <r>    7.5696    0.0000 </r>
       <r>    8.1051    0.0000 </r>
       <r>    8.5009    0.0000 </r>
      </set>
      <set comment="kpoint 10">
       <r>  -44.0222    1.0000 </r>
       <r>  -44.0219    1.0000 </r>
       <r>  -44.0160    1.0000 </r>
       <r>  -39.6671    1.0000 </r>
       <r>  -39.6620    1.0000 </r>
       <r>  -39.6615    1.0000 </r>
       <r>   -5.4796    1.0000 </r>
       <r>   -4.4934    1.0000 </r>
       <r>    1.3250    1.0000 </r>
       <r>    2.4445    1.0000 </r>
       <r>    2.7088    1.0000 </r>
       <r>    2.8425    1.0000 </r>
       <r>    3.4296    1.0000 </r>
       <r>    3.4409    1.0000 </r>
       <r>    3.8604    1.0000 </r>
       <r>    4.2268    1.0000 </r>
       <r>    4.7538    1.0000 </r>
       <r>    5.5979    1.0000 </r>
       <r>    6.0383    1.0000 </r>
       <r>    7.0475    0.0000 </r>
       <r>    7.5066    0.0000 </r>
       <r>    7.5944    0.0000 </r>
       <r>    8.1422    0.0000 </r>
       <r>    8.5187    0.0000 </r>
      </set>
      <set comment="kpoint 11">
       <r>  -44.0223    1.0000 </r>
       <r>  -44.0219    1.0000 </r>
       <r>  -44.0160    1.0000 </r>
       <r>  -39.6671    1.0000 </r>
       <r>  -39.6622    1.0000 </r>
       <r>  -39.6616    1.0000 </r>
       <r>   -5.3901    1.0000 </r>
       <r>   -4.4692    1.0000 </r>
       <r>    1.4585    1.0000 </r>
       <r>    2.2576    1.0000 </r>
       <r>    2.5957    1.0000 </r>
       <r>    2.8454    1.0000 </r>
       <r>    3.4264    1.0000 </r>
       <r>    3.4328    1.0000 </r>
       <r>    3.7553    1.0000 </r>
       <r>    4.1230    1.0000 </r>
       <r>    4.6552    1.0000 </r>
       <r>    5.5798    1.0000 </r>
       <r>    5.9230    1.0000 </r>
       <r>    7.0146    0.0000 </r>
       <r>    7.5245    0.0000 </r>
       <r>    7.6193    0.0000 </r>
       <r>    8.1693    0.0000 </r>
       <r>    8.5441    0.0000 </r>
      </set>
      <set comment="kpoint 12">
       <r>  -44.0224    1.0000 </r>
       <r>  -44.0219    1.0000 </r>
       <r>  -44.0160    1.0000 </r>
       <r>  -39.6670    1.0000 </r>
       <r>  -39.6623    1.0000 </r>
       <r>  -39.6616    1.0000 </r>
       <r>   -5.2959    1.0000 </r>
       <r>   -4.4474    1.0000 </r>
       <r>    1.5998    1.0000 </r>
       <r>    2.0274    1.0000 </r>
       <r>    2.5297    1.0000 </r>
       <r>    2.8455    1.0000 </r>
       <r>    3.4040    1.0000 </r>
       <r>    3.4427    1.0000 </r>
       <r>    3.6523    1.0000 </r>
       <r>    4.0517    1.0000 </r>
       <r>    4.5570    1.0000 </r>
       <r>    5.5629    1.0000 </r>
       <r>    5.7916    1.0000 </r>
       <r>    6.9864    0.0000 </r>
       <r>    7.5398    0.0000 </r>
       <r>    7.6434    0.0000 </r>
       <r>    8.1703    0.0000 </r>
       <r>    8.5742    0.0000 </r>
      </set>
      <set comment="kpoint 13">
       <r>  -44.0225    1.0000 </r>
       <r>  -44.0220    1.0000 </r>
       <r>  -44.0159    1.0000 </r>
       <r>  -39.6670    1.0000 </r>
       <r>  -39.6624    1.0000 </r>
       <r>  -39.6616    1.0000 </r>
       <r>   -5.1986    1.0000 </r>
       <r>   -4.4294    1.0000 </r>
       <r>    1.7191    1.0000 </r>
       <r>    1.8230    1.0000 </r>
       <r>    2.4811    1.0000 </r>
       <r>    2.8428    1.0000 </r>
       <r>    3.3647    1.0000 </r>
       <r>    3.4600    1.0000 </r>
       <r>    3.5641    1.0000 </r>
       <r>    4.0041    1.0000 </r>
       <r>    4.4602    1.0000 </r>
       <r>    5.5473    1.0000 </r>
       <r>    5.6492    1.0000 </r>
       <r>    6.9629    0.0000 </r>
       <r>    7.5539    0.0000 </r>
       <r>    7.6650    0.0000 </r>
       <r>    8.1370    0.0000 </r>
       <r>    8.6060    0.0000 </r>
      </set>
      <set comment="kpoint 14">
       <r>  -44.0226    1.0000 </r>
       <r>  -44.0220    1.0000 </r>
       <r>  -44.0159    1.0000 </r>
       <r>  -39.6670    1.0000 </r>
       <r>  -39.6625    1.0000 </r>
       <r>  -39.6616    1.0000 </r>
       <r>   -5.1003    1.0000 </r>
       <r>   -4.4168    1.0000 </r>
       <r>    1.5551    1.0000 </r>
       <r>    1.9199    1.0000 </r>
       <r>    2.4415    1.0000 </r>
       <r>    2.8378    1.0000 </r>
       <r>    3.2992    1.0000 </r>
       <r>    3.4845    1.0000 </r>
       <r>    3.5071    1.0000 </r>
       <r>    3.9701    1.0000 </r>
       <r>    4.3663    1.0000 </r>
       <r>    5.5011    1.0000 </r>
       <r>    5.5332    1.0000 </r>
       <r>    6.9438    0.0000 </r>
       <r>    7.5673    0.0000 </r>
       <r>    7.6809    0.0000 </r>
       <r>    8.0756    0.0000 </r>
       <r>    8.6372    0.0000 </r>
      </set>
      <set comment="kpoint 15">
       <r>  -44.0226    1.0000 </r>
       <r>  -44.0220    1.0000 </r>
       <r>  -44.0159    1.0000 </r>
       <r>  -39.6670    1.0000 </r>
       <r>  -39.6626    1.0000 </r>
       <r>  -39.6617    1.0000 </r>
       <r>   -5.0031    1.0000 </r>
       <r>   -4.4110    1.0000 </r>
       <r>    1.3582    1.0000 </r>
       <r>    2.0713    1.0000 </r>
       <r>    2.4101    1.0000 </r>
       <r>    2.8313    1.0000 </r>
       <r>    3.2177    1.0000 </r>
       <r>    3.4770    1.0000 </r>
       <r>    3.5157    1.0000 </r>
       <r>    3.9423    1.0000 </r>
       <r>    4.2763    1.0000 </r>
       <r>    5.3533    1.0000 </r>
       <r>    5.5209    1.0000 </r>
       <r>    6.9285    0.0000 </r>
       <r>    7.5802    0.0000 </r>
       <r>    7.6856    0.0000 </r>
       <r>    8.0054    0.0000 </r>
       <r>    8.6660    0.0000 </r>
      </set>
      <set comment="kpoint 16">
       <r>  -44.0227    1.0000 </r>
       <r>  -44.0220    1.0000 </r>
       <r>  -44.0159    1.0000 </r>
       <r>  -39.6669    1.0000 </r>
       <r>  -39.6627    1.0000 </r>
       <r>  -39.6617    1.0000 </r>
       <r>   -4.9097    1.0000 </r>
       <r>   -4.4133    1.0000 </r>
       <r>    1.1875    1.0000 </r>
       <r>    2.2125    1.0000 </r>
       <r>    2.3929    1.0000 </r>
       <r>    2.8243    1.0000 </r>
       <r>    3.1377    1.0000 </r>
       <r>    3.4601    1.0000 </r>
       <r>    3.5524    1.0000 </r>
       <r>    3.9162    1.0000 </r>
       <r>    4.1916    1.0000 </r>
       <r>    5.2130    1.0000 </r>
       <r>    5.5104    1.0000 </r>
       <r>    6.9166    0.0000 </r>
       <r>    7.5922    0.0000 </r>
       <r>    7.6718    0.0000 </r>
       <r>    7.9495    0.0000 </r>
       <r>    8.6910    0.0000 </r>
      </set>
      <set comment="kpoint 17">
       <r>  -44.0227    1.0000 </r>
       <r>  -44.0220    1.0000 </r>
       <r>  -44.0159    1.0000 </r>
       <r>  -39.6669    1.0000 </r>
       <r>  -39.6628    1.0000 </r>
       <r>  -39.6617    1.0000 </r>
       <r>   -4.8233    1.0000 </r>
       <r>   -4.4240    1.0000 </r>
       <r>    1.0494    1.0000 </r>
       <r>    2.2982    1.0000 </r>
       <r>    2.4261    1.0000 </r>
       <r>    2.8177    1.0000 </r>
       <r>    3.0689    1.0000 </r>
       <r>    3.4496    1.0000 </r>
       <r>    3.5926    1.0000 </r>
       <r>    3.8895    1.0000 </r>
       <r>    4.1143    1.0000 </r>
       <r>    5.0890    1.0000 </r>
       <r>    5.5021    1.0000 </r>
       <r>    6.9076    0.0000 </r>
       <r>    7.6026    0.0000 </r>
       <r>    7.6395    0.0000 </r>
       <r>    7.9198    0.0000 </r>
       <r>    8.7112    0.0000 </r>
      </set>
      <set comment="kpoint 18">
       <r>  -44.0228    1.0000 </r>
       <r>  -44.0220    1.0000 </r>
       <r>  -44.0159    1.0000 </r>
       <r>  -39.6669    1.0000 </r>
       <r>  -39.6628    1.0000 </r>
       <r>  -39.6617    1.0000 </r>
       <r>   -4.7483    1.0000 </r>
       <r>   -4.4422    1.0000 </r>
       <r>    0.9478    1.0000 </r>
       <r>    2.3074    1.0000 </r>
       <r>    2.5200    1.0000 </r>
       <r>    2.8124    1.0000 </r>
       <r>    3.0155    1.0000 </r>
       <r>    3.4428    1.0000 </r>
       <r>    3.6325    1.0000 </r>
       <r>    3.8634    1.0000 </r>
       <r>    4.0479    1.0000 </r>
       <r>    4.9910    1.0000 </r>
       <r>    5.4961    1.0000 </r>
       <r>    6.9014    0.0000 </r>
       <r>    7.6021    0.0000 </r>
       <r>    7.6108    0.0000 </r>
       <r>    7.9099    0.0000 </r>
       <r>    8.7261    0.0000 </r>
      </set>
      <set comment="kpoint 19">
       <r>  -44.0228    1.0000 </r>
       <r>  -44.0220    1.0000 </r>
       <r>  -44.0159    1.0000 </r>
       <r>  -39.6669    1.0000 </r>
       <r>  -39.6629    1.0000 </r>
       <r>  -39.6617    1.0000 </r>
       <r>   -4.6925    1.0000 </r>
       <r>   -4.4627    1.0000 </r>
       <r>    0.8857    1.0000 </r>
       <r>    2.3027    1.0000 </r>
       <r>    2.5977    1.0000 </r>
       <r>    2.8089    1.0000 </r>
       <r>    2.9805    1.0000 </r>
       <r>    3.4388    1.0000 </r>
       <r>    3.6651    1.0000 </r>
       <r>    3.8428    1.0000 </r>
       <r>    3.9995    1.0000 </r>
       <r>    4.9281    1.0000 </r>
       <r>    5.4924    1.0000 </r>
       <r>    6.8976    0.0000 </r>
       <r>    7.5744    0.0000 </r>
       <r>    7.6160    0.0000 </r>
       <r>    7.9083    0.0000 </r>
       <r>    8.7351    0.0000 </r>
      </set>
      <set comment="kpoint 20">
       <r>  -44.0228    1.0000 </r>
       <r>  -44.0220    1.0000 </r>
       <r>  -44.0159    1.0000 </r>
       <r>  -39.6669    1.0000 </r>
       <r>  -39.6629    1.0000 </r>
       <r>  -39.6617    1.0000 </r>
       <r>   -4.6703    1.0000 </r>
       <r>   -4.4730    1.0000 </r>
       <r>    0.8648    1.0000 </r>
       <r>    2.3005    1.0000 </r>
       <r>    2.6271    1.0000 </r>
       <r>    2.8078    1.0000 </r>
       <r>    2.9678    1.0000 </r>
       <r>    3.4375    1.0000 </r>
       <r>    3.6784    1.0000 </r>
       <r>    3.8347    1.0000 </r>
       <r>    3.9809    1.0000 </r>
       <r>    4.9064    1.0000 </r>
       <r>    5.4912    1.0000 </r>
       <r>    6.8964    0.0000 </r>
       <r>    7.5644    0.0000 </r>
       <r>    7.6178    0.0000 </r>
       <r>    7.9084    0.0000 </r>
       <r>    8.7382    0.0000 </r>
      </set>
      <set comment="kpoint 21">
       <r>  -44.0228    1.0000 </r>
       <r>  -44.0220    1.0000 </r>
       <r>  -44.0159    1.0000 </r>
       <r>  -39.6669    1.0000 </r>
       <r>  -39.6629    1.0000 </r>
       <r>  -39.6617    1.0000 </r>
       <r>   -4.6703    1.0000 </r>
       <r>   -4.4730    1.0000 </r>
       <r>    0.8648    1.0000 </r>
       <r>    2.3005    1.0000 </r>
       <r>    2.6271    1.0000 </r>
       <r>    2.8078    1.0000 </r>
       <r>    2.9678    1.0000 </r>
       <r>    3.4375    1.0000 </r>
       <r>    3.6784    1.0000 </r>
       <r>    3.8347    1.0000 </r>
       <r>    3.9809    1.0000 </r>
       <r>    4.9064    1.0000 </r>
       <r>    5.4912    1.0000 </r>
       <r>    6.8964    0.0000 </r>
       <r>    7.5644    0.0000 </r>
       <r>    7.6178    0.0000 </r>
       <r>    7.9084    0.0000 </r>
       <r>    8.7382    0.0000 </r>
      </set>
      <set comment="kpoint 22">
       <r>  -44.0228    1.0000 </r>
       <r>  -44.0220    1.0000 </r>
       <r>  -44.0159    1.0000 </r>
       <r>  -39.6669    1.0000 </r>
       <r>  -39.6629    1.0000 </r>
       <r>  -39.6617    1.0000 </r>
       <r>   -4.6695    1.0000 </r>
       <r>   -4.4725    1.0000 </r>
       <r>    0.8662    1.0000 </r>
       <r>    2.2996    1.0000 </r>
       <r>    2.6284    1.0000 </r>
       <r>    2.8072    1.0000 </r>
       <r>    2.9701    1.0000 </r>
       <r>    3.4270    1.0000 </r>
       <r>    3.6803    1.0000 </r>
       <r>    3.8252    1.0000 </r>
       <r>    3.9903    1.0000 </r>
       <r>    4.9068    1.0000 </r>
       <r>    5.4854    1.0000 </r>
       <r>    6.9033    0.0000 </r>
       <r>    7.5637    0.0000 </r>
       <r>    7.6171    0.0000 </r>
       <r>    7.9084    0.0000 </r>
       <r>    8.7085    0.0000 </r>
      </set>
      <set comment="kpoint 23">
       <r>  -44.0228    1.0000 </r>
       <r>  -44.0220    1.0000 </r>
       <r>  -44.0159    1.0000 </r>
       <r>  -39.6669    1.0000 </r>
       <r>  -39.6629    1.0000 </r>
       <r>  -39.6617    1.0000 </r>
       <r>   -4.6671    1.0000 </r>
       <r>   -4.4709    1.0000 </r>
       <r>    0.8703    1.0000 </r>
       <r>    2.2969    1.0000 </r>
       <r>    2.6322    1.0000 </r>
       <r>    2.8059    1.0000 </r>
       <r>    2.9768    1.0000 </r>
       <r>    3.3956    1.0000 </r>
       <r>    3.6857    1.0000 </r>
       <r>    3.8040    1.0000 </r>
       <r>    4.0119    1.0000 </r>
       <r>    4.9080    1.0000 </r>
       <r>    5.4681    1.0000 </r>
       <r>    6.9234    0.0000 </r>
       <r>    7.5617    0.0000 </r>
       <r>    7.6147    0.0000 </r>
       <r>    7.9084    0.0000 </r>
       <r>    8.6341    0.0000 </r>
      </set>
      <set comment="kpoint 24">
       <r>  -44.0228    1.0000 </r>
       <r>  -44.0221    1.0000 </r>
       <r>  -44.0159    1.0000 </r>
       <r>  -39.6669    1.0000 </r>
       <r>  -39.6629    1.0000 </r>
       <r>  -39.6618    1.0000 </r>
       <r>   -4.6631    1.0000 </r>
       <r>   -4.4683    1.0000 </r>
       <r>    0.8771    1.0000 </r>
       <r>    2.2926    1.0000 </r>
       <r>    2.6386    1.0000 </r>
       <r>    2.8042    1.0000 </r>
       <r>    2.9871    1.0000 </r>
       <r>    3.3436    1.0000 </r>
       <r>    3.6949    1.0000 </r>
       <r>    3.7812    1.0000 </r>
       <r>    4.0366    1.0000 </r>
       <r>    4.9099    1.0000 </r>
       <r>    5.4397    1.0000 </r>
       <r>    6.9547    0.0000 </r>
       <r>    7.5586    0.0000 </r>
       <r>    7.6110    0.0000 </r>
       <r>    7.9084    0.0000 </r>
       <r>    8.5397    0.0000 </r>
      </set>
      <set comment="kpoint 25">
       <r>  -44.0228    1.0000 </r>
       <r>  -44.0221    1.0000 </r>
       <r>  -44.0159    1.0000 </r>
       <r>  -39.6669    1.0000 </r>
       <r>  -39.6628    1.0000 </r>
       <r>  -39.6618    1.0000 </r>
       <r>   -4.6576    1.0000 </r>
       <r>   -4.4648    1.0000 </r>
       <r>    0.8865    1.0000 </r>
       <r>    2.2867    1.0000 </r>
       <r>    2.6474    1.0000 </r>
       <r>    2.8027    1.0000 </r>
       <r>    3.0003    1.0000 </r>
       <r>    3.2734    1.0000 </r>
       <r>    3.7076    1.0000 </r>
       <r>    3.7613    1.0000 </r>
       <r>    4.0600    1.0000 </r>
       <r>    4.9123    1.0000 </r>
       <r>    5.4008    1.0000 </r>
       <r>    6.9943    0.0000 </r>
       <r>    7.5547    0.0000 </r>
       <r>    7.6060    0.0000 </r>
       <r>    7.9083    0.0000 </r>
       <r>    8.4415    0.0000 </r>
      </set>
      <set comment="kpoint 26">
       <r>  -44.0228    1.0000 </r>
       <r>  -44.0221    1.0000 </r>
       <r>  -44.0159    1.0000 </r>
       <r>  -39.6669    1.0000 </r>
       <r>  -39.6628    1.0000 </r>
       <r>  -39.6618    1.0000 </r>
       <r>   -4.6505    1.0000 </r>
       <r>   -4.4606    1.0000 </r>
       <r>    0.8982    1.0000 </r>
       <r>    2.2796    1.0000 </r>
       <r>    2.6585    1.0000 </r>
       <r>    2.8020    1.0000 </r>
       <r>    3.0154    1.0000 </r>
       <r>    3.1883    1.0000 </r>
       <r>    3.7239    1.0000 </r>
       <r>    3.7453    1.0000 </r>
       <r>    4.0808    1.0000 </r>
       <r>    4.9149    1.0000 </r>
       <r>    5.3525    1.0000 </r>
       <r>    7.0382    0.0000 </r>
       <r>    7.5508    0.0000 </r>
       <r>    7.6001    0.0000 </r>
       <r>    7.9081    0.0000 </r>
       <r>    8.3481    0.0000 </r>
      </set>
      <set comment="kpoint 27">
       <r>  -44.0228    1.0000 </r>
       <r>  -44.0221    1.0000 </r>
       <r>  -44.0159    1.0000 </r>
       <r>  -39.6669    1.0000 </r>
       <r>  -39.6628    1.0000 </r>
       <r>  -39.6618    1.0000 </r>
       <r>   -4.6421    1.0000 </r>
       <r>   -4.4557    1.0000 </r>
       <r>    0.9121    1.0000 </r>
       <r>    2.2713    1.0000 </r>
       <r>    2.6716    1.0000 </r>
       <r>    2.8024    1.0000 </r>
       <r>    3.0318    1.0000 </r>
       <r>    3.0925    1.0000 </r>
       <r>    3.7325    1.0000 </r>
       <r>    3.7436    1.0000 </r>
       <r>    4.0985    1.0000 </r>
       <r>    4.9174    1.0000 </r>
       <r>    5.2959    1.0000 </r>
       <r>    7.0820    0.0000 </r>
       <r>    7.5480    0.0000 </r>
       <r>    7.5936    0.0000 </r>
       <r>    7.9077    0.0000 </r>
       <r>    8.2631    0.0000 </r>
      </set>
      <set comment="kpoint 28">
       <r>  -44.0227    1.0000 </r>
       <r>  -44.0221    1.0000 </r>
       <r>  -44.0159    1.0000 </r>
       <r>  -39.6669    1.0000 </r>
       <r>  -39.6628    1.0000 </r>
       <r>  -39.6619    1.0000 </r>
       <r>   -4.6323    1.0000 </r>
       <r>   -4.4503    1.0000 </r>
       <r>    0.9279    1.0000 </r>
       <r>    2.2621    1.0000 </r>
       <r>    2.6865    1.0000 </r>
       <r>    2.8041    1.0000 </r>
       <r>    2.9901    1.0000 </r>
       <r>    3.0486    1.0000 </r>
       <r>    3.7219    1.0000 </r>
       <r>    3.7666    1.0000 </r>
       <r>    4.1135    1.0000 </r>
       <r>    4.9195    1.0000 </r>
       <r>    5.2327    1.0000 </r>
       <r>    7.1208    0.0000 </r>
       <r>    7.5480    0.0000 </r>
       <r>    7.5870    0.0000 </r>
       <r>    7.9071    0.0000 </r>
       <r>    8.1882    0.0000 </r>
      </set>
      <set comment="kpoint 29">
       <r>  -44.0227    1.0000 </r>
       <r>  -44.0221    1.0000 </r>
       <r>  -44.0159    1.0000 </r>
       <r>  -39.6669    1.0000 </r>
       <r>  -39.6628    1.0000 </r>
       <r>  -39.6619    1.0000 </r>
       <r>   -4.6212    1.0000 </r>
       <r>   -4.4447    1.0000 </r>
       <r>    0.9451    1.0000 </r>
       <r>    2.2524    1.0000 </r>
       <r>    2.7023    1.0000 </r>
       <r>    2.8071    1.0000 </r>
       <r>    2.8849    1.0000 </r>
       <r>    3.0652    1.0000 </r>
       <r>    3.7127    1.0000 </r>
       <r>    3.7927    1.0000 </r>
       <r>    4.1259    1.0000 </r>
       <r>    4.9207    1.0000 </r>
       <r>    5.1648    1.0000 </r>
       <r>    7.1496    0.0000 </r>
       <r>    7.5531    0.0000 </r>
       <r>    7.5809    0.0000 </r>
       <r>    7.9060    0.0000 </r>
       <r>    8.1234    0.0000 </r>
      </set>
      <set comment="kpoint 30">
       <r>  -44.0227    1.0000 </r>
       <r>  -44.0222    1.0000 </r>
       <r>  -44.0159    1.0000 </r>
       <r>  -39.6669    1.0000 </r>
       <r>  -39.6628    1.0000 </r>
       <r>  -39.6619    1.0000 </r>
       <r>   -4.6090    1.0000 </r>
       <r>   -4.4392    1.0000 </r>
       <r>    0.9633    1.0000 </r>
       <r>    2.2423    1.0000 </r>
       <r>    2.7150    1.0000 </r>
       <r>    2.7841    1.0000 </r>
       <r>    2.8115    1.0000 </r>
       <r>    3.0812    1.0000 </r>
       <r>    3.7043    1.0000 </r>
       <r>    3.8215    1.0000 </r>
       <r>    4.1361    1.0000 </r>
       <r>    4.9207    1.0000 </r>
       <r>    5.0941    1.0000 </r>
       <r>    7.1645    0.0000 </r>
       <r>    7.5650    0.0000 </r>
       <r>    7.5760    0.0000 </r>
       <r>    7.9043    0.0000 </r>
       <r>    8.0681    0.0000 </r>
      </set>
      <set comment="kpoint 31">
       <r>  -44.0227    1.0000 </r>
       <r>  -44.0222    1.0000 </r>
       <r>  -44.0159    1.0000 </r>
       <r>  -39.6669    1.0000 </r>
       <r>  -39.6627    1.0000 </r>
       <r>  -39.6620    1.0000 </r>
       <r>   -4.5958    1.0000 </r>
       <r>   -4.4339    1.0000 </r>
       <r>    0.9819    1.0000 </r>
       <r>    2.2321    1.0000 </r>
       <r>    2.6642    1.0000 </r>
       <r>    2.7503    1.0000 </r>
       <r>    2.8171    1.0000 </r>
       <r>    3.0960    1.0000 </r>
       <r>    3.6965    1.0000 </r>
       <r>    3.8527    1.0000 </r>
       <r>    4.1443    1.0000 </r>
       <r>    4.9188    1.0000 </r>
       <r>    5.0231    1.0000 </r>
       <r>    7.1638    0.0000 </r>
       <r>    7.5729    0.0000 </r>
       <r>    7.5839    0.0000 </r>
       <r>    7.9016    0.0000 </r>
       <r>    8.0214    0.0000 </r>
      </set>
      <set comment="kpoint 32">
       <r>  -44.0227    1.0000 </r>
       <r>  -44.0222    1.0000 </r>
       <r>  -44.0158    1.0000 </r>
       <r>  -39.6669    1.0000 </r>
       <r>  -39.6627    1.0000 </r>
       <r>  -39.6620    1.0000 </r>
       <r>   -4.5817    1.0000 </r>
       <r>   -4.4292    1.0000 </r>
       <r>    1.0004    1.0000 </r>
       <r>    2.2220    1.0000 </r>
       <r>    2.5687    1.0000 </r>
       <r>    2.7666    1.0000 </r>
       <r>    2.8237    1.0000 </r>
       <r>    3.1092    1.0000 </r>
       <r>    3.6890    1.0000 </r>
       <r>    3.8855    1.0000 </r>
       <r>    4.1506    1.0000 </r>
       <r>    4.9146    1.0000 </r>
       <r>    4.9542    1.0000 </r>
       <r>    7.1484    0.0000 </r>
       <r>    7.5722    0.0000 </r>
       <r>    7.6081    0.0000 </r>
       <r>    7.8975    0.0000 </r>
       <r>    7.9822    0.0000 </r>
      </set>
      <set comment="kpoint 33">
       <r>  -44.0226    1.0000 </r>
       <r>  -44.0223    1.0000 </r>
       <r>  -44.0158    1.0000 </r>
       <r>  -39.6669    1.0000 </r>
       <r>  -39.6627    1.0000 </r>
       <r>  -39.6621    1.0000 </r>
       <r>   -4.5668    1.0000 </r>
       <r>   -4.4255    1.0000 </r>
       <r>    1.0178    1.0000 </r>
       <r>    2.2123    1.0000 </r>
       <r>    2.4775    1.0000 </r>
       <r>    2.7862    1.0000 </r>
       <r>    2.8313    1.0000 </r>
       <r>    3.1204    1.0000 </r>
       <r>    3.6818    1.0000 </r>
       <r>    3.9194    1.0000 </r>
       <r>    4.1551    1.0000 </r>
       <r>    4.8899    1.0000 </r>
       <r>    4.9073    1.0000 </r>
       <r>    7.1216    0.0000 </r>
       <r>    7.5743    0.0000 </r>
       <r>    7.6348    0.0000 </r>
       <r>    7.8912    0.0000 </r>
       <r>    7.9492    0.0000 </r>
      </set>
      <set comment="kpoint 34">
       <r>  -44.0226    1.0000 </r>
       <r>  -44.0223    1.0000 </r>
       <r>  -44.0158    1.0000 </r>
       <r>  -39.6669    1.0000 </r>
       <r>  -39.6626    1.0000 </r>
       <r>  -39.6621    1.0000 </r>
       <r>   -4.5514    1.0000 </r>
       <r>   -4.4231    1.0000 </r>
       <r>    1.0335    1.0000 </r>
       <r>    2.2032    1.0000 </r>
       <r>    2.3950    1.0000 </r>
       <r>    2.8060    1.0000 </r>
       <r>    2.8394    1.0000 </r>
       <r>    3.1293    1.0000 </r>
       <r>    3.6749    1.0000 </r>
       <r>    3.9534    1.0000 </r>
       <r>    4.1578    1.0000 </r>
       <r>    4.8327    1.0000 </r>
       <r>    4.8964    1.0000 </r>
       <r>    7.0871    0.0000 </r>
       <r>    7.5797    0.0000 </r>
       <r>    7.6612    0.0000 </r>
       <r>    7.8822    0.0000 </r>
       <r>    7.9215    0.0000 </r>
      </set>
      <set comment="kpoint 35">
       <r>  -44.0226    1.0000 </r>
       <r>  -44.0223    1.0000 </r>
       <r>  -44.0158    1.0000 </r>
       <r>  -39.6669    1.0000 </r>
       <r>  -39.6626    1.0000 </r>
       <r>  -39.6622    1.0000 </r>
       <r>   -4.5355    1.0000 </r>
       <r>   -4.4224    1.0000 </r>
       <r>    1.0467    1.0000 </r>
       <r>    2.1947    1.0000 </r>
       <r>    2.3235    1.0000 </r>
       <r>    2.8251    1.0000 </r>
       <r>    2.8478    1.0000 </r>
       <r>    3.1358    1.0000 </r>
       <r>    3.6683    1.0000 </r>
       <r>    3.9865    1.0000 </r>
       <r>    4.1584    1.0000 </r>
       <r>    4.7853    1.0000 </r>
       <r>    4.8814    1.0000 </r>
       <r>    7.0491    0.0000 </r>
       <r>    7.5885    0.0000 </r>
       <r>    7.6850    0.0000 </r>
       <r>    7.8697    0.0000 </r>
       <r>    7.8982    0.0000 </r>
      </set>
      <set comment="kpoint 36">
       <r>  -44.0226    1.0000 </r>
       <r>  -44.0224    1.0000 </r>
       <r>  -44.0158    1.0000 </r>
       <r>  -39.6669    1.0000 </r>
       <r>  -39.6626    1.0000 </r>
       <r>  -39.6622    1.0000 </r>
       <r>   -4.5194    1.0000 </r>
       <r>   -4.4237    1.0000 </r>
       <r>    1.0567    1.0000 </r>
       <r>    2.1871    1.0000 </r>
       <r>    2.2646    1.0000 </r>
       <r>    2.8426    1.0000 </r>
       <r>    2.8561    1.0000 </r>
       <r>    3.1397    1.0000 </r>
       <r>    3.6622    1.0000 </r>
       <r>    4.0178    1.0000 </r>
       <r>    4.1565    1.0000 </r>
       <r>    4.7500    1.0000 </r>
       <r>    4.8622    1.0000 </r>
       <r>    7.0116    0.0000 </r>
       <r>    7.6008    0.0000 </r>
       <r>    7.7037    0.0000 </r>
       <r>    7.8545    0.0000 </r>
       <r>    7.8786    0.0000 </r>
      </set>
      <set comment="kpoint 37">
       <r>  -44.0226    1.0000 </r>
       <r>  -44.0224    1.0000 </r>
       <r>  -44.0158    1.0000 </r>
       <r>  -39.6669    1.0000 </r>
       <r>  -39.6625    1.0000 </r>
       <r>  -39.6623    1.0000 </r>
       <r>   -4.5032    1.0000 </r>
       <r>   -4.4274    1.0000 </r>
       <r>    1.0633    1.0000 </r>
       <r>    2.1805    1.0000 </r>
       <r>    2.2196    1.0000 </r>
       <r>    2.8577    1.0000 </r>
       <r>    2.8638    1.0000 </r>
       <r>    3.1414    1.0000 </r>
       <r>    3.6568    1.0000 </r>
       <r>    4.0462    1.0000 </r>
       <r>    4.1519    1.0000 </r>
       <r>    4.7286    1.0000 </r>
       <r>    4.8388    1.0000 </r>
       <r>    6.9783    0.0000 </r>
       <r>    7.6165    0.0000 </r>
       <r>    7.7145    0.0000 </r>
       <r>    7.8397    0.0000 </r>
       <r>    7.8623    0.0000 </r>
      </set>
      <set comment="kpoint 38">
       <r>  -44.0225    1.0000 </r>
       <r>  -44.0224    1.0000 </r>
       <r>  -44.0158    1.0000 </r>
       <r>  -39.6669    1.0000 </r>
       <r>  -39.6625    1.0000 </r>
       <r>  -39.6623    1.0000 </r>
       <r>   -4.4872    1.0000 </r>
       <r>   -4.4339    1.0000 </r>
       <r>    1.0667    1.0000 </r>
       <r>    2.1750    1.0000 </r>
       <r>    2.1887    1.0000 </r>
       <r>    2.8693    1.0000 </r>
       <r>    2.8704    1.0000 </r>
       <r>    3.1414    1.0000 </r>
       <r>    3.6526    1.0000 </r>
       <r>    4.0714    1.0000 </r>
       <r>    4.1437    1.0000 </r>
       <r>    4.7222    1.0000 </r>
       <r>    4.8120    1.0000 </r>
       <r>    6.9522    0.0000 </r>
       <r>    7.6354    0.0000 </r>
       <r>    7.7137    0.0000 </r>
       <r>    7.8300    0.0000 </r>
       <r>    7.8488    0.0000 </r>
      </set>
      <set comment="kpoint 39">
       <r>  -44.0225    1.0000 </r>
       <r>  -44.0225    1.0000 </r>
       <r>  -44.0158    1.0000 </r>
       <r>  -39.6669    1.0000 </r>
       <r>  -39.6625    1.0000 </r>
       <r>  -39.6624    1.0000 </r>
       <r>   -4.4716    1.0000 </r>
       <r>   -4.4435    1.0000 </r>
       <r>    1.0677    1.0000 </r>
       <r>    2.1707    1.0000 </r>
       <r>    2.1718    1.0000 </r>
       <r>    2.8754    1.0000 </r>
       <r>    2.8765    1.0000 </r>
       <r>    3.1406    1.0000 </r>
       <r>    3.6497    1.0000 </r>
       <r>    4.0938    1.0000 </r>
       <r>    4.1314    1.0000 </r>
       <r>    4.7309    1.0000 </r>
       <r>    4.7830    1.0000 </r>
       <r>    6.9355    0.0000 </r>
       <r>    7.6569    0.0000 </r>
       <r>    7.7009    0.0000 </r>
       <r>    7.8281    0.0000 </r>
       <r>    7.8384    0.0000 </r>
      </set>
      <set comment="kpoint 40">
       <r>  -44.0225    1.0000 </r>
       <r>  -44.0225    1.0000 </r>
       <r>  -44.0158    1.0000 </r>
       <r>  -39.6669    1.0000 </r>
       <r>  -39.6624    1.0000 </r>
       <r>  -39.6624    1.0000 </r>
       <r>   -4.4565    1.0000 </r>
       <r>   -4.4565    1.0000 </r>
       <r>    1.0677    1.0000 </r>
       <r>    2.1679    1.0000 </r>
       <r>    2.1679    1.0000 </r>
       <r>    2.8782    1.0000 </r>
       <r>    2.8782    1.0000 </r>
       <r>    3.1400    1.0000 </r>
       <r>    3.6487    1.0000 </r>
       <r>    4.1142    1.0000 </r>
       <r>    4.1142    1.0000 </r>
       <r>    4.7535    1.0000 </r>
       <r>    4.7535    1.0000 </r>
       <r>    6.9298    0.0000 </r>
       <r>    7.6800    0.0000 </r>
       <r>    7.6800    0.0000 </r>
       <r>    7.8315    0.0000 </r>
       <r>    7.8315    0.0000 </r>
      </set>
      <set comment="kpoint 41">
       <r>  -44.0225    1.0000 </r>
       <r>  -44.0225    1.0000 </r>
       <r>  -44.0158    1.0000 </r>
       <r>  -39.6669    1.0000 </r>
       <r>  -39.6624    1.0000 </r>
       <r>  -39.6624    1.0000 </r>
       <r>   -4.4565    1.0000 </r>
       <r>   -4.4565    1.0000 </r>
       <r>    1.0677    1.0000 </r>
       <r>    2.1679    1.0000 </r>
       <r>    2.1679    1.0000 </r>
       <r>    2.8782    1.0000 </r>
       <r>    2.8782    1.0000 </r>
       <r>    3.1400    1.0000 </r>
       <r>    3.6487    1.0000 </r>
       <r>    4.1142    1.0000 </r>
       <r>    4.1142    1.0000 </r>
       <r>    4.7535    1.0000 </r>
       <r>    4.7535    1.0000 </r>
       <r>    6.9298    0.0000 </r>
       <r>    7.6800    0.0000 </r>
       <r>    7.6800    0.0000 </r>
       <r>    7.8315    0.0000 </r>
       <r>    7.8315    0.0000 </r>
      </set>
      <set comment="kpoint 42">
       <r>  -44.0225    1.0000 </r>
       <r>  -44.0224    1.0000 </r>
       <r>  -44.0158    1.0000 </r>
       <r>  -39.6669    1.0000 </r>
       <r>  -39.6625    1.0000 </r>
       <r>  -39.6623    1.0000 </r>
       <r>   -4.4936    1.0000 </r>
       <r>   -4.4286    1.0000 </r>
       <r>    1.0714    1.0000 </r>
       <r>    2.1668    1.0000 </r>
       <r>    2.1928    1.0000 </r>
       <r>    2.8606    1.0000 </r>
       <r>    2.8759    1.0000 </r>
       <r>    3.1443    1.0000 </r>
       <r>    3.6535    1.0000 </r>
       <r>    4.0631    1.0000 </r>
       <r>    4.1546    1.0000 </r>
       <r>    4.7013    1.0000 </r>
       <r>    4.8332    1.0000 </r>
       <r>    6.9527    0.0000 </r>
       <r>    7.6299    0.0000 </r>
       <r>    7.7216    0.0000 </r>
       <r>    7.8357    0.0000 </r>
       <r>    7.8419    0.0000 </r>
      </set>
      <set comment="kpoint 43">
       <r>  -44.0226    1.0000 </r>
       <r>  -44.0224    1.0000 </r>
       <r>  -44.0158    1.0000 </r>
       <r>  -39.6669    1.0000 </r>
       <r>  -39.6625    1.0000 </r>
       <r>  -39.6622    1.0000 </r>
       <r>   -4.5465    1.0000 </r>
       <r>   -4.4052    1.0000 </r>
       <r>    1.0919    1.0000 </r>
       <r>    2.1726    1.0000 </r>
       <r>    2.2489    1.0000 </r>
       <r>    2.8098    1.0000 </r>
       <r>    2.8656    1.0000 </r>
       <r>    3.1603    1.0000 </r>
       <r>    3.6687    1.0000 </r>
       <r>    3.9911    1.0000 </r>
       <r>    4.2019    1.0000 </r>
       <r>    4.6693    1.0000 </r>
       <r>    4.9455    1.0000 </r>
       <r>    7.0170    0.0000 </r>
       <r>    7.5812    0.0000 </r>
       <r>    7.7369    0.0000 </r>
       <r>    7.8491    0.0000 </r>
       <r>    7.8808    0.0000 </r>
      </set>
      <set comment="kpoint 44">
       <r>  -44.0226    1.0000 </r>
       <r>  -44.0223    1.0000 </r>
       <r>  -44.0159    1.0000 </r>
       <r>  -39.6669    1.0000 </r>
       <r>  -39.6626    1.0000 </r>
       <r>  -39.6621    1.0000 </r>
       <r>   -4.6153    1.0000 </r>
       <r>   -4.3876    1.0000 </r>
       <r>    1.1402    1.0000 </r>
       <r>    2.1862    1.0000 </r>
       <r>    2.3207    1.0000 </r>
       <r>    2.7249    1.0000 </r>
       <r>    2.8551    1.0000 </r>
       <r>    3.1885    1.0000 </r>
       <r>    3.6936    1.0000 </r>
       <r>    3.9074    1.0000 </r>
       <r>    4.2604    1.0000 </r>
       <r>    4.6631    1.0000 </r>
       <r>    5.0784    1.0000 </r>
       <r>    7.1090    0.0000 </r>
       <r>    7.5422    0.0000 </r>
       <r>    7.7307    0.0000 </r>
       <r>    7.8507    0.0000 </r>
       <r>    7.9572    0.0000 </r>
      </set>
      <set comment="kpoint 45">
       <r>  -44.0226    1.0000 </r>
       <r>  -44.0222    1.0000 </r>
       <r>  -44.0159    1.0000 </r>
       <r>  -39.6669    1.0000 </r>
       <r>  -39.6626    1.0000 </r>
       <r>  -39.6621    1.0000 </r>
       <r>   -4.6988    1.0000 </r>
       <r>   -4.3768    1.0000 </r>
       <r>    1.2231    1.0000 </r>
       <r>    2.2085    1.0000 </r>
       <r>    2.3856    1.0000 </r>
       <r>    2.6199    1.0000 </r>
       <r>    2.8533    1.0000 </r>
       <r>    3.2265    1.0000 </r>
       <r>    3.7253    1.0000 </r>
       <r>    3.8243    1.0000 </r>
       <r>    4.3308    1.0000 </r>
       <r>    4.6815    1.0000 </r>
       <r>    5.2238    1.0000 </r>
       <r>    7.2032    0.0000 </r>
       <r>    7.5249    0.0000 </r>
       <r>    7.7160    0.0000 </r>
       <r>    7.8461    0.0000 </r>
       <r>    8.0459    0.0000 </r>
      </set>
      <set comment="kpoint 46">
       <r>  -44.0226    1.0000 </r>
       <r>  -44.0222    1.0000 </r>
       <r>  -44.0159    1.0000 </r>
       <r>  -39.6669    1.0000 </r>
       <r>  -39.6626    1.0000 </r>
       <r>  -39.6620    1.0000 </r>
       <r>   -4.7948    1.0000 </r>
       <r>   -4.3733    1.0000 </r>
       <r>    1.3432    1.0000 </r>
       <r>    2.2394    1.0000 </r>
       <r>    2.3646    1.0000 </r>
       <r>    2.5729    1.0000 </r>
       <r>    2.8669    1.0000 </r>
       <r>    3.2727    1.0000 </r>
       <r>    3.7416    1.0000 </r>
       <r>    3.7682    1.0000 </r>
       <r>    4.4120    1.0000 </r>
       <r>    4.7211    1.0000 </r>
       <r>    5.3760    1.0000 </r>
       <r>    7.2626    0.0000 </r>
       <r>    7.5483    0.0000 </r>
       <r>    7.6956    0.0000 </r>
       <r>    7.8358    0.0000 </r>
       <r>    8.1365    0.0000 </r>
      </set>
      <set comment="kpoint 47">
       <r>  -44.0226    1.0000 </r>
       <r>  -44.0221    1.0000 </r>
       <r>  -44.0159    1.0000 </r>
       <r>  -39.6669    1.0000 </r>
       <r>  -39.6626    1.0000 </r>
       <r>  -39.6619    1.0000 </r>
       <r>   -4.9004    1.0000 </r>
       <r>   -4.3774    1.0000 </r>
       <r>    1.4999    1.0000 </r>
       <r>    2.2229    1.0000 </r>
       <r>    2.2785    1.0000 </r>
       <r>    2.6223    1.0000 </r>
       <r>    2.8994    1.0000 </r>
       <r>    3.3270    1.0000 </r>
       <r>    3.6818    1.0000 </r>
       <r>    3.8001    1.0000 </r>
       <r>    4.5027    1.0000 </r>
       <r>    4.7786    1.0000 </r>
       <r>    5.5311    1.0000 </r>
       <r>    7.2752    0.0000 </r>
       <r>    7.6072    0.0000 </r>
       <r>    7.6692    0.0000 </r>
       <r>    7.8216    0.0000 </r>
       <r>    8.2204    0.0000 </r>
      </set>
      <set comment="kpoint 48">
       <r>  -44.0225    1.0000 </r>
       <r>  -44.0221    1.0000 </r>
       <r>  -44.0159    1.0000 </r>
       <r>  -39.6669    1.0000 </r>
       <r>  -39.6625    1.0000 </r>
       <r>  -39.6618    1.0000 </r>
       <r>   -5.0123    1.0000 </r>
       <r>   -4.3886    1.0000 </r>
       <r>    1.6905    1.0000 </r>
       <r>    2.0485    1.0000 </r>
       <r>    2.3243    1.0000 </r>
       <r>    2.6854    1.0000 </r>
       <r>    2.9514    1.0000 </r>
       <r>    3.3909    1.0000 </r>
       <r>    3.6290    1.0000 </r>
       <r>    3.8357    1.0000 </r>
       <r>    4.6017    1.0000 </r>
       <r>    4.8501    1.0000 </r>
       <r>    5.6850    1.0000 </r>
       <r>    7.2667    0.0000 </r>
       <r>    7.6359    0.0000 </r>
       <r>    7.6651    0.0000 </r>
       <r>    7.8098    0.0000 </r>
       <r>    8.2882    0.0000 </r>
      </set>
      <set comment="kpoint 49">
       <r>  -44.0225    1.0000 </r>
       <r>  -44.0220    1.0000 </r>
       <r>  -44.0159    1.0000 </r>
       <r>  -39.6670    1.0000 </r>
       <r>  -39.6624    1.0000 </r>
       <r>  -39.6617    1.0000 </r>
       <r>   -5.1271    1.0000 </r>
       <r>   -4.4063    1.0000 </r>
       <r>    1.8558    1.0000 </r>
       <r>    1.9227    1.0000 </r>
       <r>    2.3745    1.0000 </r>
       <r>    2.7407    1.0000 </r>
       <r>    3.0202    1.0000 </r>
       <r>    3.4683    1.0000 </r>
       <r>    3.5865    1.0000 </r>
       <r>    3.8714    1.0000 </r>
       <r>    4.7079    1.0000 </r>
       <r>    4.9308    1.0000 </r>
       <r>    5.8341    1.0000 </r>
       <r>    7.2556    0.0000 </r>
       <r>    7.5953    0.0000 </r>
       <r>    7.6934    0.0000 </r>
       <r>    7.8182    0.0000 </r>
       <r>    8.3310    0.0000 </r>
      </set>
      <set comment="kpoint 50">
       <r>  -44.0224    1.0000 </r>
       <r>  -44.0220    1.0000 </r>
       <r>  -44.0159    1.0000 </r>
       <r>  -39.6670    1.0000 </r>
       <r>  -39.6623    1.0000 </r>
       <r>  -39.6617    1.0000 </r>
       <r>   -5.2416    1.0000 </r>
       <r>   -4.4293    1.0000 </r>
       <r>    1.6852    1.0000 </r>
       <r>    2.1590    1.0000 </r>
       <r>    2.4272    1.0000 </r>
       <r>    2.7843    1.0000 </r>
       <r>    3.0989    1.0000 </r>
       <r>    3.5534    1.0000 </r>
       <r>    3.5654    1.0000 </r>
       <r>    3.9099    1.0000 </r>
       <r>    4.8206    1.0000 </r>
       <r>    5.0149    1.0000 </r>
       <r>    5.9740    1.0000 </r>
       <r>    7.2492    0.0000 </r>
       <r>    7.5480    0.0000 </r>
       <r>    7.6843    0.0000 </r>
       <r>    7.8592    0.0000 </r>
       <r>    8.3427    0.0000 </r>
      </set>
      <set comment="kpoint 51">
       <r>  -44.0223    1.0000 </r>
       <r>  -44.0219    1.0000 </r>
       <r>  -44.0160    1.0000 </r>
       <r>  -39.6670    1.0000 </r>
       <r>  -39.6622    1.0000 </r>
       <r>  -39.6616    1.0000 </r>
       <r>   -5.3530    1.0000 </r>
       <r>   -4.4562    1.0000 </r>
       <r>    1.5150    1.0000 </r>
       <r>    2.4159    1.0000 </r>
       <r>    2.4805    1.0000 </r>
       <r>    2.8169    1.0000 </r>
       <r>    3.1783    1.0000 </r>
       <r>    3.5290    1.0000 </r>
       <r>    3.6891    1.0000 </r>
       <r>    3.9571    1.0000 </r>
       <r>    4.9388    1.0000 </r>
       <r>    5.0965    1.0000 </r>
       <r>    6.0994    1.0000 </r>
       <r>    7.2491    0.0000 </r>
       <r>    7.4963    0.0000 </r>
       <r>    7.6575    0.0000 </r>
       <r>    7.9212    0.0000 </r>
       <r>    8.3228    0.0000 </r>
      </set>
      <set comment="kpoint 52">
       <r>  -44.0222    1.0000 </r>
       <r>  -44.0219    1.0000 </r>
       <r>  -44.0160    1.0000 </r>
       <r>  -39.6671    1.0000 </r>
       <r>  -39.6620    1.0000 </r>
       <r>  -39.6615    1.0000 </r>
       <r>   -5.4585    1.0000 </r>
       <r>   -4.4855    1.0000 </r>
       <r>    1.3564    1.0000 </r>
       <r>    2.5331    1.0000 </r>
       <r>    2.6632    1.0000 </r>
       <r>    2.8495    1.0000 </r>
       <r>    3.2503    1.0000 </r>
       <r>    3.5118    1.0000 </r>
       <r>    3.8436    1.0000 </r>
       <r>    4.0236    1.0000 </r>
       <r>    5.0612    1.0000 </r>
       <r>    5.1702    1.0000 </r>
       <r>    6.2037    1.0000 </r>
       <r>    7.2540    0.0000 </r>
       <r>    7.4441    0.0000 </r>
       <r>    7.6252    0.0000 </r>
       <r>    7.9983    0.0000 </r>
       <r>    8.2783    0.0000 </r>
      </set>
      <set comment="kpoint 53">
       <r>  -44.0221    1.0000 </r>
       <r>  -44.0218    1.0000 </r>
       <r>  -44.0160    1.0000 </r>
       <r>  -39.6671    1.0000 </r>
       <r>  -39.6619    1.0000 </r>
       <r>  -39.6615    1.0000 </r>
       <r>   -5.5561    1.0000 </r>
       <r>   -4.5156    1.0000 </r>
       <r>    1.2122    1.0000 </r>
       <r>    2.5840    1.0000 </r>
       <r>    2.7971    1.0000 </r>
       <r>    2.9678    1.0000 </r>
       <r>    3.3115    1.0000 </r>
       <r>    3.5005    1.0000 </r>
       <r>    4.0272    1.0000 </r>
       <r>    4.1260    1.0000 </r>
       <r>    5.1862    1.0000 </r>
       <r>    5.2330    1.0000 </r>
       <r>    6.2789    1.0000 </r>
       <r>    7.2615    0.0000 </r>
       <r>    7.3967    0.0000 </r>
       <r>    7.5915    0.0000 </r>
       <r>    8.0893    0.0000 </r>
       <r>    8.2227    0.0000 </r>
      </set>
      <set comment="kpoint 54">
       <r>  -44.0221    1.0000 </r>
       <r>  -44.0218    1.0000 </r>
       <r>  -44.0160    1.0000 </r>
       <r>  -39.6671    1.0000 </r>
       <r>  -39.6618    1.0000 </r>
       <r>  -39.6614    1.0000 </r>
       <r>   -5.6439    1.0000 </r>
       <r>   -4.5451    1.0000 </r>
       <r>    1.0843    1.0000 </r>
       <r>    2.6319    1.0000 </r>
       <r>    2.8144    1.0000 </r>
       <r>    3.1529    1.0000 </r>
       <r>    3.3619    1.0000 </r>
       <r>    3.4937    1.0000 </r>
       <r>    4.2331    1.0000 </r>
       <r>    4.2845    1.0000 </r>
       <r>    5.2839    1.0000 </r>
       <r>    5.3114    1.0000 </r>
       <r>    6.3167    1.0000 </r>
       <r>    7.2689    0.0000 </r>
       <r>    7.3580    0.0000 </r>
       <r>    7.5585    0.0000 </r>
       <r>    8.1740    0.0000 </r>
       <r>    8.1909    0.0000 </r>
      </set>
      <set comment="kpoint 55">
       <r>  -44.0220    1.0000 </r>
       <r>  -44.0218    1.0000 </r>
       <r>  -44.0160    1.0000 </r>
       <r>  -39.6672    1.0000 </r>
       <r>  -39.6617    1.0000 </r>
       <r>  -39.6614    1.0000 </r>
       <r>   -5.7205    1.0000 </r>
       <r>   -4.5724    1.0000 </r>
       <r>    0.9742    1.0000 </r>
       <r>    2.6757    1.0000 </r>
       <r>    2.8134    1.0000 </r>
       <r>    3.2934    1.0000 </r>
       <r>    3.4028    1.0000 </r>
       <r>    3.4898    1.0000 </r>
       <r>    4.4526    1.0000 </r>
       <r>    4.5081    1.0000 </r>
       <r>    5.3247    1.0000 </r>
       <r>    5.4329    1.0000 </r>
       <r>    6.3120    1.0000 </r>
       <r>    7.2738    0.0000 </r>
       <r>    7.3283    0.0000 </r>
       <r>    7.5268    0.0000 </r>
       <r>    8.1525    0.0000 </r>
       <r>    8.2966    0.0000 </r>
      </set>
      <set comment="kpoint 56">
       <r>  -44.0219    1.0000 </r>
       <r>  -44.0218    1.0000 </r>
       <r>  -44.0160    1.0000 </r>
       <r>  -39.6672    1.0000 </r>
       <r>  -39.6615    1.0000 </r>
       <r>  -39.6613    1.0000 </r>
       <r>   -5.7847    1.0000 </r>
       <r>   -4.5965    1.0000 </r>
       <r>    0.8828    1.0000 </r>
       <r>    2.7142    1.0000 </r>
       <r>    2.8077    1.0000 </r>
       <r>    3.3827    1.0000 </r>
       <r>    3.4354    1.0000 </r>
       <r>    3.4880    1.0000 </r>
       <r>    4.6762    1.0000 </r>
       <r>    4.7798    1.0000 </r>
       <r>    5.3608    1.0000 </r>
       <r>    5.5457    1.0000 </r>
       <r>    6.2660    1.0000 </r>
       <r>    7.2752    0.0000 </r>
       <r>    7.3032    0.0000 </r>
       <r>    7.4962    0.0000 </r>
       <r>    8.1763    0.0000 </r>
       <r>    8.3979    0.0000 </r>
      </set>
      <set comment="kpoint 57">
       <r>  -44.0218    1.0000 </r>
       <r>  -44.0217    1.0000 </r>
       <r>  -44.0161    1.0000 </r>
       <r>  -39.6672    1.0000 </r>
       <r>  -39.6614    1.0000 </r>
       <r>  -39.6613    1.0000 </r>
       <r>   -5.8354    1.0000 </r>
       <r>   -4.6164    1.0000 </r>
       <r>    0.8111    1.0000 </r>
       <r>    2.7458    1.0000 </r>
       <r>    2.8008    1.0000 </r>
       <r>    3.4352    1.0000 </r>
       <r>    3.4603    1.0000 </r>
       <r>    3.4874    1.0000 </r>
       <r>    4.8934    1.0000 </r>
       <r>    5.0540    1.0000 </r>
       <r>    5.4094    1.0000 </r>
       <r>    5.6427    1.0000 </r>
       <r>    6.1870    1.0000 </r>
       <r>    7.2717    0.0000 </r>
       <r>    7.2793    0.0000 </r>
       <r>    7.4660    0.0000 </r>
       <r>    8.2543    0.0000 </r>
       <r>    8.4859    0.0000 </r>
      </set>
      <set comment="kpoint 58">
       <r>  -44.0218    1.0000 </r>
       <r>  -44.0217    1.0000 </r>
       <r>  -44.0161    1.0000 </r>
       <r>  -39.6672    1.0000 </r>
       <r>  -39.6614    1.0000 </r>
       <r>  -39.6613    1.0000 </r>
       <r>   -5.8722    1.0000 </r>
       <r>   -4.6311    1.0000 </r>
       <r>    0.7595    1.0000 </r>
       <r>    2.7695    1.0000 </r>
       <r>    2.7947    1.0000 </r>
       <r>    3.4639    1.0000 </r>
       <r>    3.4780    1.0000 </r>
       <r>    3.4881    1.0000 </r>
       <r>    5.0909    1.0000 </r>
       <r>    5.2381    1.0000 </r>
       <r>    5.5253    1.0000 </r>
       <r>    5.7161    1.0000 </r>
       <r>    6.0897    1.0000 </r>
       <r>    7.2578    0.0000 </r>
       <r>    7.2620    0.0000 </r>
       <r>    7.4362    0.0000 </r>
       <r>    8.3816    0.0000 </r>
       <r>    8.5530    0.0000 </r>
      </set>
      <set comment="kpoint 59">
       <r>  -44.0217    1.0000 </r>
       <r>  -44.0217    1.0000 </r>
       <r>  -44.0161    1.0000 </r>
       <r>  -39.6672    1.0000 </r>
       <r>  -39.6613    1.0000 </r>
       <r>  -39.6613    1.0000 </r>
       <r>   -5.8944    1.0000 </r>
       <r>   -4.6402    1.0000 </r>
       <r>    0.7284    1.0000 </r>
       <r>    2.7842    1.0000 </r>
       <r>    2.7906    1.0000 </r>
       <r>    3.4766    1.0000 </r>
       <r>    3.4885    1.0000 </r>
       <r>    3.4903    1.0000 </r>
       <r>    5.2450    1.0000 </r>
       <r>    5.2970    1.0000 </r>
       <r>    5.6922    1.0000 </r>
       <r>    5.7575    1.0000 </r>
       <r>    6.0006    1.0000 </r>
       <r>    7.2428    0.0000 </r>
       <r>    7.2466    0.0000 </r>
       <r>    7.4116    0.0000 </r>
       <r>    8.5316    0.0000 </r>
       <r>    8.5859    0.0000 </r>
      </set>
      <set comment="kpoint 60">
       <r>  -44.0217    1.0000 </r>
       <r>  -44.0217    1.0000 </r>
       <r>  -44.0161    1.0000 </r>
       <r>  -39.6672    1.0000 </r>
       <r>  -39.6613    1.0000 </r>
       <r>  -39.6613    1.0000 </r>
       <r>   -5.9019    1.0000 </r>
       <r>   -4.6432    1.0000 </r>
       <r>    0.7180    1.0000 </r>
       <r>    2.7892    1.0000 </r>
       <r>    2.7892    1.0000 </r>
       <r>    3.4795    1.0000 </r>
       <r>    3.4921    1.0000 </r>
       <r>    3.4921    1.0000 </r>
       <r>    5.3089    1.0000 </r>
       <r>    5.3089    1.0000 </r>
       <r>    5.7673    1.0000 </r>
       <r>    5.7673    1.0000 </r>
       <r>    5.9628    1.0000 </r>
       <r>    7.2375    0.0000 </r>
       <r>    7.2375    0.0000 </r>
       <r>    7.4018    0.0000 </r>
       <r>    8.5326    0.0000 </r>
       <r>    8.6160    0.0000 </r>
      </set>
     </set>
    </set>
   </array>
  </eigenvalues>
  <separator name="orbital magnetization" >
   <v name="MAGDIPOLOUT">      0.00000000      0.00000000      0.00000000</v>
  </separator>
  <dos>
   <i name="efermi">      6.58814155 </i>
   <total>
    <array>
     <dimension dim="1">gridpoints</dimension>
     <dimension dim="2">spin</dimension>
     <field>energy</field>
     <field>total</field>
     <field>integrated</field>
     <set>
      <set comment="spin 1">
       <r>   -46.6608     0.0000     0.0000 </r>
       <r>   -46.4674     0.0000     0.0000 </r>
       <r>   -46.2739     0.0000     0.0000 </r>
       <r>   -46.0805     0.0000     0.0000 </r>
       <r>   -45.8870     0.0000     0.0000 </r>
       <r>   -45.6936     0.0000     0.0000 </r>
       <r>   -45.5001     0.0000     0.0000 </r>
       <r>   -45.3066     0.0000     0.0000 </r>
       <r>   -45.1132     0.0000     0.0000 </r>
       <r>   -44.9197     0.0000     0.0000 </r>
       <r>   -44.7263     0.0000     0.0000 </r>
       <r>   -44.5328     0.0000     0.0000 </r>
       <r>   -44.3394     0.0000     0.0000 </r>
       <r>   -44.1459     0.0030     0.0006 </r>
       <r>   -43.9525    15.0661     2.9152 </r>
       <r>   -43.7590     0.4382     3.0000 </r>
       <r>   -43.5655     0.0000     3.0000 </r>
       <r>   -43.3721     0.0000     3.0000 </r>
       <r>   -43.1786     0.0000     3.0000 </r>
       <r>   -42.9852     0.0000     3.0000 </r>
       <r>   -42.7917     0.0000     3.0000 </r>
       <r>   -42.5983     0.0000     3.0000 </r>
       <r>   -42.4048     0.0000     3.0000 </r>
       <r>   -42.2113     0.0000     3.0000 </r>
       <r>   -42.0179     0.0000     3.0000 </r>
       <r>   -41.8244     0.0000     3.0000 </r>
       <r>   -41.6310     0.0000     3.0000 </r>
       <r>   -41.4375     0.0000     3.0000 </r>
       <r>   -41.2441     0.0000     3.0000 </r>
       <r>   -41.0506     0.0000     3.0000 </r>
       <r>   -40.8571     0.0000     3.0000 </r>
       <r>   -40.6637     0.0000     3.0000 </r>
       <r>   -40.4702     0.0000     3.0000 </r>
       <r>   -40.2768     0.0000     3.0000 </r>
       <r>   -40.0833     0.0000     3.0000 </r>
       <r>   -39.8899     0.0000     3.0000 </r>
       <r>   -39.6964     2.7582     3.5336 </r>
       <r>   -39.5029    12.7491     6.0000 </r>
       <r>   -39.3095     0.0000     6.0000 </r>
       <r>   -39.1160     0.0000     6.0000 </r>
       <r>   -38.9226     0.0000     6.0000 </r>
       <r>   -38.7291     0.0000     6.0000 </r>
       <r>   -38.5357     0.0000     6.0000 </r>
       <r>   -38.3422     0.0000     6.0000 </r>
       <r>   -38.1487     0.0000     6.0000 </r>
       <r>   -37.9553     0.0000     6.0000 </r>
       <r>   -37.7618     0.0000     6.0000 </r>
       <r>   -37.5684     0.0000     6.0000 </r>
       <r>   -37.3749     0.0000     6.0000 </r>
       <r>   -37.1815     0.0000     6.0000 </r>
       <r>   -36.9880     0.0000     6.0000 </r>
       <r>   -36.7945     0.0000     6.0000 </r>
       <r>   -36.6011     0.0000     6.0000 </r>
       <r>   -36.4076     0.0000     6.0000 </r>
       <r>   -36.2142     0.0000     6.0000 </r>
       <r>   -36.0207     0.0000     6.0000 </r>
       <r>   -35.8273     0.0000     6.0000 </r>
       <r>   -35.6338     0.0000     6.0000 </r>
       <r>   -35.4404     0.0000     6.0000 </r>
       <r>   -35.2469     0.0000     6.0000 </r>
       <r>   -35.0534     0.0000     6.0000 </r>
       <r>   -34.8600     0.0000     6.0000 </r>
       <r>   -34.6665     0.0000     6.0000 </r>
       <r>   -34.4731     0.0000     6.0000 </r>
       <r>   -34.2796     0.0000     6.0000 </r>
       <r>   -34.0862     0.0000     6.0000 </r>
       <r>   -33.8927     0.0000     6.0000 </r>
       <r>   -33.6992     0.0000     6.0000 </r>
       <r>   -33.5058     0.0000     6.0000 </r>
       <r>   -33.3123     0.0000     6.0000 </r>
       <r>   -33.1189     0.0000     6.0000 </r>
       <r>   -32.9254     0.0000     6.0000 </r>
       <r>   -32.7320     0.0000     6.0000 </r>
       <r>   -32.5385     0.0000     6.0000 </r>
       <r>   -32.3450     0.0000     6.0000 </r>
       <r>   -32.1516     0.0000     6.0000 </r>
       <r>   -31.9581     0.0000     6.0000 </r>
       <r>   -31.7647     0.0000     6.0000 </r>
       <r>   -31.5712     0.0000     6.0000 </r>
       <r>   -31.3778     0.0000     6.0000 </r>
       <r>   -31.1843     0.0000     6.0000 </r>
       <r>   -30.9908     0.0000     6.0000 </r>
       <r>   -30.7974     0.0000     6.0000 </r>
       <r>   -30.6039     0.0000     6.0000 </r>
       <r>   -30.4105     0.0000     6.0000 </r>
       <r>   -30.2170     0.0000     6.0000 </r>
       <r>   -30.0236     0.0000     6.0000 </r>
       <r>   -29.8301     0.0000     6.0000 </r>
       <r>   -29.6366     0.0000     6.0000 </r>
       <r>   -29.4432     0.0000     6.0000 </r>
       <r>   -29.2497     0.0000     6.0000 </r>
       <r>   -29.0563     0.0000     6.0000 </r>
       <r>   -28.8628     0.0000     6.0000 </r>
       <r>   -28.6694     0.0000     6.0000 </r>
       <r>   -28.4759     0.0000     6.0000 </r>
       <r>   -28.2824     0.0000     6.0000 </r>
       <r>   -28.0890     0.0000     6.0000 </r>
       <r>   -27.8955     0.0000     6.0000 </r>
       <r>   -27.7021     0.0000     6.0000 </r>
       <r>   -27.5086     0.0000     6.0000 </r>
       <r>   -27.3152     0.0000     6.0000 </r>
       <r>   -27.1217     0.0000     6.0000 </r>
       <r>   -26.9283     0.0000     6.0000 </r>
       <r>   -26.7348     0.0000     6.0000 </r>
       <r>   -26.5413     0.0000     6.0000 </r>
       <r>   -26.3479     0.0000     6.0000 </r>
       <r>   -26.1544     0.0000     6.0000 </r>
       <r>   -25.9610     0.0000     6.0000 </r>
       <r>   -25.7675     0.0000     6.0000 </r>
       <r>   -25.5741     0.0000     6.0000 </r>
       <r>   -25.3806     0.0000     6.0000 </r>
       <r>   -25.1871     0.0000     6.0000 </r>
       <r>   -24.9937     0.0000     6.0000 </r>
       <r>   -24.8002     0.0000     6.0000 </r>
       <r>   -24.6068     0.0000     6.0000 </r>
       <r>   -24.4133     0.0000     6.0000 </r>
       <r>   -24.2199     0.0000     6.0000 </r>
       <r>   -24.0264     0.0000     6.0000 </r>
       <r>   -23.8329     0.0000     6.0000 </r>
       <r>   -23.6395     0.0000     6.0000 </r>
       <r>   -23.4460     0.0000     6.0000 </r>
       <r>   -23.2526     0.0000     6.0000 </r>
       <r>   -23.0591     0.0000     6.0000 </r>
       <r>   -22.8657     0.0000     6.0000 </r>
       <r>   -22.6722     0.0000     6.0000 </r>
       <r>   -22.4787     0.0000     6.0000 </r>
       <r>   -22.2853     0.0000     6.0000 </r>
       <r>   -22.0918     0.0000     6.0000 </r>
       <r>   -21.8984     0.0000     6.0000 </r>
       <r>   -21.7049     0.0000     6.0000 </r>
       <r>   -21.5115     0.0000     6.0000 </r>
       <r>   -21.3180     0.0000     6.0000 </r>
       <r>   -21.1245     0.0000     6.0000 </r>
       <r>   -20.9311     0.0000     6.0000 </r>
       <r>   -20.7376     0.0000     6.0000 </r>
       <r>   -20.5442     0.0000     6.0000 </r>
       <r>   -20.3507     0.0000     6.0000 </r>
       <r>   -20.1573     0.0000     6.0000 </r>
       <r>   -19.9638     0.0000     6.0000 </r>
       <r>   -19.7703     0.0000     6.0000 </r>
       <r>   -19.5769     0.0000     6.0000 </r>
       <r>   -19.3834     0.0000     6.0000 </r>
       <r>   -19.1900     0.0000     6.0000 </r>
       <r>   -18.9965     0.0000     6.0000 </r>
       <r>   -18.8031     0.0000     6.0000 </r>
       <r>   -18.6096     0.0000     6.0000 </r>
       <r>   -18.4162     0.0000     6.0000 </r>
       <r>   -18.2227     0.0000     6.0000 </r>
       <r>   -18.0292     0.0000     6.0000 </r>
       <r>   -17.8358     0.0000     6.0000 </r>
       <r>   -17.6423     0.0000     6.0000 </r>
       <r>   -17.4489     0.0000     6.0000 </r>
       <r>   -17.2554     0.0000     6.0000 </r>
       <r>   -17.0620     0.0000     6.0000 </r>
       <r>   -16.8685     0.0000     6.0000 </r>
       <r>   -16.6750     0.0000     6.0000 </r>
       <r>   -16.4816     0.0000     6.0000 </r>
       <r>   -16.2881     0.0000     6.0000 </r>
       <r>   -16.0947     0.0000     6.0000 </r>
       <r>   -15.9012     0.0000     6.0000 </r>
       <r>   -15.7078     0.0000     6.0000 </r>
       <r>   -15.5143     0.0000     6.0000 </r>
       <r>   -15.3208     0.0000     6.0000 </r>
       <r>   -15.1274     0.0000     6.0000 </r>
       <r>   -14.9339     0.0000     6.0000 </r>
       <r>   -14.7405     0.0000     6.0000 </r>
       <r>   -14.5470     0.0000     6.0000 </r>
       <r>   -14.3536     0.0000     6.0000 </r>
       <r>   -14.1601     0.0000     6.0000 </r>
       <r>   -13.9666     0.0000     6.0000 </r>
       <r>   -13.7732     0.0000     6.0000 </r>
       <r>   -13.5797     0.0000     6.0000 </r>
       <r>   -13.3863     0.0000     6.0000 </r>
       <r>   -13.1928     0.0000     6.0000 </r>
       <r>   -12.9994     0.0000     6.0000 </r>
       <r>   -12.8059     0.0000     6.0000 </r>
       <r>   -12.6124     0.0000     6.0000 </r>
       <r>   -12.4190     0.0000     6.0000 </r>
       <r>   -12.2255     0.0000     6.0000 </r>
       <r>   -12.0321     0.0000     6.0000 </r>
       <r>   -11.8386     0.0000     6.0000 </r>
       <r>   -11.6452     0.0000     6.0000 </r>
       <r>   -11.4517     0.0000     6.0000 </r>
       <r>   -11.2582     0.0000     6.0000 </r>
       <r>   -11.0648     0.0000     6.0000 </r>
       <r>   -10.8713     0.0000     6.0000 </r>
       <r>   -10.6779     0.0000     6.0000 </r>
       <r>   -10.4844     0.0000     6.0000 </r>
       <r>   -10.2910     0.0000     6.0000 </r>
       <r>   -10.0975     0.0000     6.0000 </r>
       <r>    -9.9041     0.0000     6.0000 </r>
       <r>    -9.7106     0.0000     6.0000 </r>
       <r>    -9.5171     0.0000     6.0000 </r>
       <r>    -9.3237     0.0000     6.0000 </r>
       <r>    -9.1302     0.0000     6.0000 </r>
       <r>    -8.9368     0.0000     6.0000 </r>
       <r>    -8.7433     0.0000     6.0000 </r>
       <r>    -8.5499     0.0000     6.0000 </r>
       <r>    -8.3564     0.0000     6.0000 </r>
       <r>    -8.1629     0.0000     6.0000 </r>
       <r>    -7.9695     0.0000     6.0000 </r>
       <r>    -7.7760     0.0000     6.0000 </r>
       <r>    -7.5826     0.0000     6.0000 </r>
       <r>    -7.3891     0.0000     6.0000 </r>
       <r>    -7.1957     0.0000     6.0000 </r>
       <r>    -7.0022     0.0000     6.0000 </r>
       <r>    -6.8087     0.0000     6.0000 </r>
       <r>    -6.6153     0.0000     6.0000 </r>
       <r>    -6.4218     0.0000     6.0000 </r>
       <r>    -6.2284     0.0000     6.0000 </r>
       <r>    -6.0349     0.0000     6.0000 </r>
       <r>    -5.8415     0.5847     6.1131 </r>
       <r>    -5.6480     0.6037     6.2299 </r>
       <r>    -5.4545     0.3915     6.3056 </r>
       <r>    -5.2611     0.3295     6.3694 </r>
       <r>    -5.0676     0.3192     6.4311 </r>
       <r>    -4.8742     0.3301     6.4950 </r>
       <r>    -4.6807     0.6913     6.6287 </r>
       <r>    -4.4873     3.5025     7.3063 </r>
       <r>    -4.2938     3.5821     7.9993 </r>
       <r>    -4.1003     0.0036     8.0000 </r>
       <r>    -3.9069     0.0000     8.0000 </r>
       <r>    -3.7134     0.0000     8.0000 </r>
       <r>    -3.5200     0.0000     8.0000 </r>
       <r>    -3.3265     0.0000     8.0000 </r>
       <r>    -3.1331     0.0000     8.0000 </r>
       <r>    -2.9396     0.0000     8.0000 </r>
       <r>    -2.7461     0.0000     8.0000 </r>
       <r>    -2.5527     0.0000     8.0000 </r>
       <r>    -2.3592     0.0000     8.0000 </r>
       <r>    -2.1658     0.0000     8.0000 </r>
       <r>    -1.9723     0.0000     8.0000 </r>
       <r>    -1.7789     0.0000     8.0000 </r>
       <r>    -1.5854     0.0000     8.0000 </r>
       <r>    -1.3920     0.0000     8.0000 </r>
       <r>    -1.1985     0.0000     8.0000 </r>
       <r>    -1.0050     0.0000     8.0000 </r>
       <r>    -0.8116     0.0000     8.0000 </r>
       <r>    -0.6181     0.0000     8.0000 </r>
       <r>    -0.4247     0.0000     8.0000 </r>
       <r>    -0.2312     0.0000     8.0000 </r>
       <r>    -0.0378     0.0000     8.0000 </r>
       <r>     0.1557     0.0000     8.0000 </r>
       <r>     0.3492     0.0000     8.0000 </r>
       <r>     0.5426     0.0000     8.0000 </r>
       <r>     0.7361     0.2835     8.0549 </r>
       <r>     0.9295     1.4585     8.3370 </r>
       <r>     1.1230     1.8273     8.6905 </r>
       <r>     1.3164     0.5548     8.7978 </r>
       <r>     1.5099     0.4494     8.8848 </r>
       <r>     1.7034     0.3944     8.9611 </r>
       <r>     1.8968     0.3173     9.0225 </r>
       <r>     2.0903     0.3755     9.0951 </r>
       <r>     2.2837     3.0044     9.6763 </r>
       <r>     2.4772     2.0264    10.0683 </r>
       <r>     2.6706     2.1129    10.4771 </r>
       <r>     2.8641     6.6575    11.7650 </r>
       <r>     3.0576     2.8341    12.3133 </r>
       <r>     3.2510     2.3002    12.7583 </r>
       <r>     3.4445     2.8091    13.3017 </r>
       <r>     3.6379     4.6824    14.2076 </r>
       <r>     3.8314     3.5848    14.9011 </r>
       <r>     4.0248     2.4485    15.3747 </r>
       <r>     4.2183     2.9805    15.9513 </r>
       <r>     4.4118     0.8136    16.1087 </r>
       <r>     4.6052     0.6997    16.2441 </r>
       <r>     4.7987     1.9520    16.6217 </r>
       <r>     4.9921     3.0209    17.2061 </r>
       <r>     5.1856     1.4376    17.4842 </r>
       <r>     5.3790     2.0633    17.8834 </r>
       <r>     5.5725     1.8231    18.2361 </r>
       <r>     5.7660     1.5951    18.5447 </r>
       <r>     5.9594     0.6678    18.6739 </r>
       <r>     6.1529     0.8057    18.8297 </r>
       <r>     6.3463     0.8449    18.9932 </r>
       <r>     6.5398     0.0352    19.0000 </r>
       <r>     6.7332     0.0000    19.0000 </r>
       <r>     6.9267     0.7661    19.1482 </r>
       <r>     7.1201     1.9314    19.5218 </r>
       <r>     7.3136     3.1019    20.1219 </r>
       <r>     7.5071     2.1218    20.5324 </r>
       <r>     7.7005     6.7198    21.8324 </r>
       <r>     7.8940     3.4056    22.4912 </r>
       <r>     8.0874     2.3799    22.9517 </r>
       <r>     8.2809     1.7528    23.2908 </r>
       <r>     8.4743     1.0351    23.4910 </r>
       <r>     8.6678     1.9884    23.8757 </r>
       <r>     8.8613     0.6425    24.0000 </r>
       <r>     9.0547     0.0001    24.0000 </r>
       <r>     9.2482     0.0000    24.0000 </r>
       <r>     9.4416     0.0000    24.0000 </r>
       <r>     9.6351     0.0000    24.0000 </r>
       <r>     9.8285     0.0000    24.0000 </r>
       <r>    10.0220     0.0000    24.0000 </r>
       <r>    10.2155     0.0000    24.0000 </r>
       <r>    10.4089     0.0000    24.0000 </r>
       <r>    10.6024     0.0000    24.0000 </r>
       <r>    10.7958     0.0000    24.0000 </r>
       <r>    10.9893     0.0000    24.0000 </r>
       <r>    11.1827     0.0000    24.0000 </r>
       <r>    11.3762     0.0000    24.0000 </r>
      </set>
      <set comment="spin 2">
       <r>   -46.6608     0.0000     0.0000 </r>
       <r>   -46.4674     0.0000     0.0000 </r>
       <r>   -46.2739     0.0000     0.0000 </r>
       <r>   -46.0805     0.0000     0.0000 </r>
       <r>   -45.8870     0.0000     0.0000 </r>
       <r>   -45.6936     0.0000     0.0000 </r>
       <r>   -45.5001     0.0000     0.0000 </r>
       <r>   -45.3066     0.0000     0.0000 </r>
       <r>   -45.1132     0.0000     0.0000 </r>
       <r>   -44.9197     0.0000     0.0000 </r>
       <r>   -44.7263     0.0000     0.0000 </r>
       <r>   -44.5328     0.0000     0.0000 </r>
       <r>   -44.3394     0.0000     0.0000 </r>
       <r>   -44.1459     0.0030     0.0006 </r>
       <r>   -43.9525    15.0661     2.9152 </r>
       <r>   -43.7590     0.4382     3.0000 </r>
       <r>   -43.5655     0.0000     3.0000 </r>
       <r>   -43.3721     0.0000     3.0000 </r>
       <r>   -43.1786     0.0000     3.0000 </r>
       <r>   -42.9852     0.0000     3.0000 </r>
       <r>   -42.7917     0.0000     3.0000 </r>
       <r>   -42.5983     0.0000     3.0000 </r>
       <r>   -42.4048     0.0000     3.0000 </r>
       <r>   -42.2113     0.0000     3.0000 </r>
       <r>   -42.0179     0.0000     3.0000 </r>
       <r>   -41.8244     0.0000     3.0000 </r>
       <r>   -41.6310     0.0000     3.0000 </r>
       <r>   -41.4375     0.0000     3.0000 </r>
       <r>   -41.2441     0.0000     3.0000 </r>
       <r>   -41.0506     0.0000     3.0000 </r>
       <r>   -40.8571     0.0000     3.0000 </r>
       <r>   -40.6637     0.0000     3.0000 </r>
       <r>   -40.4702     0.0000     3.0000 </r>
       <r>   -40.2768     0.0000     3.0000 </r>
       <r>   -40.0833     0.0000     3.0000 </r>
       <r>   -39.8899     0.0000     3.0000 </r>
       <r>   -39.6964     2.7582     3.5336 </r>
       <r>   -39.5029    12.7491     6.0000 </r>
       <r>   -39.3095     0.0000     6.0000 </r>
       <r>   -39.1160     0.0000     6.0000 </r>
       <r>   -38.9226     0.0000     6.0000 </r>
       <r>   -38.7291     0.0000     6.0000 </r>
       <r>   -38.5357     0.0000     6.0000 </r>
       <r>   -38.3422     0.0000     6.0000 </r>
       <r>   -38.1487     0.0000     6.0000 </r>
       <r>   -37.9553     0.0000     6.0000 </r>
       <r>   -37.7618     0.0000     6.0000 </r>
       <r>   -37.5684     0.0000     6.0000 </r>
       <r>   -37.3749     0.0000     6.0000 </r>
       <r>   -37.1815     0.0000     6.0000 </r>
       <r>   -36.9880     0.0000     6.0000 </r>
       <r>   -36.7945     0.0000     6.0000 </r>
       <r>   -36.6011     0.0000     6.0000 </r>
       <r>   -36.4076     0.0000     6.0000 </r>
       <r>   -36.2142     0.0000     6.0000 </r>
       <r>   -36.0207     0.0000     6.0000 </r>
       <r>   -35.8273     0.0000     6.0000 </r>
       <r>   -35.6338     0.0000     6.0000 </r>
       <r>   -35.4404     0.0000     6.0000 </r>
       <r>   -35.2469     0.0000     6.0000 </r>
       <r>   -35.0534     0.0000     6.0000 </r>
       <r>   -34.8600     0.0000     6.0000 </r>
       <r>   -34.6665     0.0000     6.0000 </r>
       <r>   -34.4731     0.0000     6.0000 </r>
       <r>   -34.2796     0.0000     6.0000 </r>
       <r>   -34.0862     0.0000     6.0000 </r>
       <r>   -33.8927     0.0000     6.0000 </r>
       <r>   -33.6992     0.0000     6.0000 </r>
       <r>   -33.5058     0.0000     6.0000 </r>
       <r>   -33.3123     0.0000     6.0000 </r>
       <r>   -33.1189     0.0000     6.0000 </r>
       <r>   -32.9254     0.0000     6.0000 </r>
       <r>   -32.7320     0.0000     6.0000 </r>
       <r>   -32.5385     0.0000     6.0000 </r>
       <r>   -32.3450     0.0000     6.0000 </r>
       <r>   -32.1516     0.0000     6.0000 </r>
       <r>   -31.9581     0.0000     6.0000 </r>
       <r>   -31.7647     0.0000     6.0000 </r>
       <r>   -31.5712     0.0000     6.0000 </r>
       <r>   -31.3778     0.0000     6.0000 </r>
       <r>   -31.1843     0.0000     6.0000 </r>
       <r>   -30.9908     0.0000     6.0000 </r>
       <r>   -30.7974     0.0000     6.0000 </r>
       <r>   -30.6039     0.0000     6.0000 </r>
       <r>   -30.4105     0.0000     6.0000 </r>
       <r>   -30.2170     0.0000     6.0000 </r>
       <r>   -30.0236     0.0000     6.0000 </r>
       <r>   -29.8301     0.0000     6.0000 </r>
       <r>   -29.6366     0.0000     6.0000 </r>
       <r>   -29.4432     0.0000     6.0000 </r>
       <r>   -29.2497     0.0000     6.0000 </r>
       <r>   -29.0563     0.0000     6.0000 </r>
       <r>   -28.8628     0.0000     6.0000 </r>
       <r>   -28.6694     0.0000     6.0000 </r>
       <r>   -28.4759     0.0000     6.0000 </r>
       <r>   -28.2824     0.0000     6.0000 </r>
       <r>   -28.0890     0.0000     6.0000 </r>
       <r>   -27.8955     0.0000     6.0000 </r>
       <r>   -27.7021     0.0000     6.0000 </r>
       <r>   -27.5086     0.0000     6.0000 </r>
       <r>   -27.3152     0.0000     6.0000 </r>
       <r>   -27.1217     0.0000     6.0000 </r>
       <r>   -26.9283     0.0000     6.0000 </r>
       <r>   -26.7348     0.0000     6.0000 </r>
       <r>   -26.5413     0.0000     6.0000 </r>
       <r>   -26.3479     0.0000     6.0000 </r>
       <r>   -26.1544     0.0000     6.0000 </r>
       <r>   -25.9610     0.0000     6.0000 </r>
       <r>   -25.7675     0.0000     6.0000 </r>
       <r>   -25.5741     0.0000     6.0000 </r>
       <r>   -25.3806     0.0000     6.0000 </r>
       <r>   -25.1871     0.0000     6.0000 </r>
       <r>   -24.9937     0.0000     6.0000 </r>
       <r>   -24.8002     0.0000     6.0000 </r>
       <r>   -24.6068     0.0000     6.0000 </r>
       <r>   -24.4133     0.0000     6.0000 </r>
       <r>   -24.2199     0.0000     6.0000 </r>
       <r>   -24.0264     0.0000     6.0000 </r>
       <r>   -23.8329     0.0000     6.0000 </r>
       <r>   -23.6395     0.0000     6.0000 </r>
       <r>   -23.4460     0.0000     6.0000 </r>
       <r>   -23.2526     0.0000     6.0000 </r>
       <r>   -23.0591     0.0000     6.0000 </r>
       <r>   -22.8657     0.0000     6.0000 </r>
       <r>   -22.6722     0.0000     6.0000 </r>
       <r>   -22.4787     0.0000     6.0000 </r>
       <r>   -22.2853     0.0000     6.0000 </r>
       <r>   -22.0918     0.0000     6.0000 </r>
       <r>   -21.8984     0.0000     6.0000 </r>
       <r>   -21.7049     0.0000     6.0000 </r>
       <r>   -21.5115     0.0000     6.0000 </r>
       <r>   -21.3180     0.0000     6.0000 </r>
       <r>   -21.1245     0.0000     6.0000 </r>
       <r>   -20.9311     0.0000     6.0000 </r>
       <r>   -20.7376     0.0000     6.0000 </r>
       <r>   -20.5442     0.0000     6.0000 </r>
       <r>   -20.3507     0.0000     6.0000 </r>
       <r>   -20.1573     0.0000     6.0000 </r>
       <r>   -19.9638     0.0000     6.0000 </r>
       <r>   -19.7703     0.0000     6.0000 </r>
       <r>   -19.5769     0.0000     6.0000 </r>
       <r>   -19.3834     0.0000     6.0000 </r>
       <r>   -19.1900     0.0000     6.0000 </r>
       <r>   -18.9965     0.0000     6.0000 </r>
       <r>   -18.8031     0.0000     6.0000 </r>
       <r>   -18.6096     0.0000     6.0000 </r>
       <r>   -18.4162     0.0000     6.0000 </r>
       <r>   -18.2227     0.0000     6.0000 </r>
       <r>   -18.0292     0.0000     6.0000 </r>
       <r>   -17.8358     0.0000     6.0000 </r>
       <r>   -17.6423     0.0000     6.0000 </r>
       <r>   -17.4489     0.0000     6.0000 </r>
       <r>   -17.2554     0.0000     6.0000 </r>
       <r>   -17.0620     0.0000     6.0000 </r>
       <r>   -16.8685     0.0000     6.0000 </r>
       <r>   -16.6750     0.0000     6.0000 </r>
       <r>   -16.4816     0.0000     6.0000 </r>
       <r>   -16.2881     0.0000     6.0000 </r>
       <r>   -16.0947     0.0000     6.0000 </r>
       <r>   -15.9012     0.0000     6.0000 </r>
       <r>   -15.7078     0.0000     6.0000 </r>
       <r>   -15.5143     0.0000     6.0000 </r>
       <r>   -15.3208     0.0000     6.0000 </r>
       <r>   -15.1274     0.0000     6.0000 </r>
       <r>   -14.9339     0.0000     6.0000 </r>
       <r>   -14.7405     0.0000     6.0000 </r>
       <r>   -14.5470     0.0000     6.0000 </r>
       <r>   -14.3536     0.0000     6.0000 </r>
       <r>   -14.1601     0.0000     6.0000 </r>
       <r>   -13.9666     0.0000     6.0000 </r>
       <r>   -13.7732     0.0000     6.0000 </r>
       <r>   -13.5797     0.0000     6.0000 </r>
       <r>   -13.3863     0.0000     6.0000 </r>
       <r>   -13.1928     0.0000     6.0000 </r>
       <r>   -12.9994     0.0000     6.0000 </r>
       <r>   -12.8059     0.0000     6.0000 </r>
       <r>   -12.6124     0.0000     6.0000 </r>
       <r>   -12.4190     0.0000     6.0000 </r>
       <r>   -12.2255     0.0000     6.0000 </r>
       <r>   -12.0321     0.0000     6.0000 </r>
       <r>   -11.8386     0.0000     6.0000 </r>
       <r>   -11.6452     0.0000     6.0000 </r>
       <r>   -11.4517     0.0000     6.0000 </r>
       <r>   -11.2582     0.0000     6.0000 </r>
       <r>   -11.0648     0.0000     6.0000 </r>
       <r>   -10.8713     0.0000     6.0000 </r>
       <r>   -10.6779     0.0000     6.0000 </r>
       <r>   -10.4844     0.0000     6.0000 </r>
       <r>   -10.2910     0.0000     6.0000 </r>
       <r>   -10.0975     0.0000     6.0000 </r>
       <r>    -9.9041     0.0000     6.0000 </r>
       <r>    -9.7106     0.0000     6.0000 </r>
       <r>    -9.5171     0.0000     6.0000 </r>
       <r>    -9.3237     0.0000     6.0000 </r>
       <r>    -9.1302     0.0000     6.0000 </r>
       <r>    -8.9368     0.0000     6.0000 </r>
       <r>    -8.7433     0.0000     6.0000 </r>
       <r>    -8.5499     0.0000     6.0000 </r>
       <r>    -8.3564     0.0000     6.0000 </r>
       <r>    -8.1629     0.0000     6.0000 </r>
       <r>    -7.9695     0.0000     6.0000 </r>
       <r>    -7.7760     0.0000     6.0000 </r>
       <r>    -7.5826     0.0000     6.0000 </r>
       <r>    -7.3891     0.0000     6.0000 </r>
       <r>    -7.1957     0.0000     6.0000 </r>
       <r>    -7.0022     0.0000     6.0000 </r>
       <r>    -6.8087     0.0000     6.0000 </r>
       <r>    -6.6153     0.0000     6.0000 </r>
       <r>    -6.4218     0.0000     6.0000 </r>
       <r>    -6.2284     0.0000     6.0000 </r>
       <r>    -6.0349     0.0000     6.0000 </r>
       <r>    -5.8415     0.5847     6.1131 </r>
       <r>    -5.6480     0.6037     6.2299 </r>
       <r>    -5.4545     0.3915     6.3056 </r>
       <r>    -5.2611     0.3295     6.3694 </r>
       <r>    -5.0676     0.3192     6.4311 </r>
       <r>    -4.8742     0.3301     6.4950 </r>
       <r>    -4.6807     0.6913     6.6287 </r>
       <r>    -4.4873     3.5025     7.3063 </r>
       <r>    -4.2938     3.5821     7.9993 </r>
       <r>    -4.1003     0.0036     8.0000 </r>
       <r>    -3.9069     0.0000     8.0000 </r>
       <r>    -3.7134     0.0000     8.0000 </r>
       <r>    -3.5200     0.0000     8.0000 </r>
       <r>    -3.3265     0.0000     8.0000 </r>
       <r>    -3.1331     0.0000     8.0000 </r>
       <r>    -2.9396     0.0000     8.0000 </r>
       <r>    -2.7461     0.0000     8.0000 </r>
       <r>    -2.5527     0.0000     8.0000 </r>
       <r>    -2.3592     0.0000     8.0000 </r>
       <r>    -2.1658     0.0000     8.0000 </r>
       <r>    -1.9723     0.0000     8.0000 </r>
       <r>    -1.7789     0.0000     8.0000 </r>
       <r>    -1.5854     0.0000     8.0000 </r>
       <r>    -1.3920     0.0000     8.0000 </r>
       <r>    -1.1985     0.0000     8.0000 </r>
       <r>    -1.0050     0.0000     8.0000 </r>
       <r>    -0.8116     0.0000     8.0000 </r>
       <r>    -0.6181     0.0000     8.0000 </r>
       <r>    -0.4247     0.0000     8.0000 </r>
       <r>    -0.2312     0.0000     8.0000 </r>
       <r>    -0.0378     0.0000     8.0000 </r>
       <r>     0.1557     0.0000     8.0000 </r>
       <r>     0.3492     0.0000     8.0000 </r>
       <r>     0.5426     0.0000     8.0000 </r>
       <r>     0.7361     0.2835     8.0549 </r>
       <r>     0.9295     1.4585     8.3370 </r>
       <r>     1.1230     1.8273     8.6905 </r>
       <r>     1.3164     0.5548     8.7978 </r>
       <r>     1.5099     0.4494     8.8848 </r>
       <r>     1.7034     0.3944     8.9611 </r>
       <r>     1.8968     0.3173     9.0225 </r>
       <r>     2.0903     0.3755     9.0951 </r>
       <r>     2.2837     3.0044     9.6763 </r>
       <r>     2.4772     2.0264    10.0683 </r>
       <r>     2.6706     2.1129    10.4771 </r>
       <r>     2.8641     6.6575    11.7650 </r>
       <r>     3.0576     2.8341    12.3133 </r>
       <r>     3.2510     2.3002    12.7583 </r>
       <r>     3.4445     2.8091    13.3017 </r>
       <r>     3.6379     4.6824    14.2076 </r>
       <r>     3.8314     3.5848    14.9011 </r>
       <r>     4.0248     2.4485    15.3747 </r>
       <r>     4.2183     2.9805    15.9513 </r>
       <r>     4.4118     0.8136    16.1087 </r>
       <r>     4.6052     0.6997    16.2441 </r>
       <r>     4.7987     1.9520    16.6217 </r>
       <r>     4.9921     3.0209    17.2061 </r>
       <r>     5.1856     1.4376    17.4842 </r>
       <r>     5.3790     2.0633    17.8834 </r>
       <r>     5.5725     1.8231    18.2361 </r>
       <r>     5.7660     1.5951    18.5447 </r>
       <r>     5.9594     0.6678    18.6739 </r>
       <r>     6.1529     0.8057    18.8297 </r>
       <r>     6.3463     0.8449    18.9932 </r>
       <r>     6.5398     0.0352    19.0000 </r>
       <r>     6.7332     0.0000    19.0000 </r>
       <r>     6.9267     0.7661    19.1482 </r>
       <r>     7.1201     1.9314    19.5218 </r>
       <r>     7.3136     3.1019    20.1219 </r>
       <r>     7.5071     2.1218    20.5324 </r>
       <r>     7.7005     6.7198    21.8324 </r>
       <r>     7.8940     3.4056    22.4912 </r>
       <r>     8.0874     2.3799    22.9517 </r>
       <r>     8.2809     1.7528    23.2908 </r>
       <r>     8.4743     1.0349    23.4910 </r>
       <r>     8.6678     1.9886    23.8757 </r>
       <r>     8.8613     0.6425    24.0000 </r>
       <r>     9.0547     0.0001    24.0000 </r>
       <r>     9.2482     0.0000    24.0000 </r>
       <r>     9.4416     0.0000    24.0000 </r>
       <r>     9.6351     0.0000    24.0000 </r>
       <r>     9.8285     0.0000    24.0000 </r>
       <r>    10.0220     0.0000    24.0000 </r>
       <r>    10.2155     0.0000    24.0000 </r>
       <r>    10.4089     0.0000    24.0000 </r>
       <r>    10.6024     0.0000    24.0000 </r>
       <r>    10.7958     0.0000    24.0000 </r>
       <r>    10.9893     0.0000    24.0000 </r>
       <r>    11.1827     0.0000    24.0000 </r>
       <r>    11.3762     0.0000    24.0000 </r>
      </set>
     </set>
    </array>
   </total>
  </dos>
 </calculation>
 <structure name="finalpos" >
  <crystal>
   <varray name="basis" >
    <v>       4.15000000       0.00000000       0.00000000 </v>
    <v>      -2.07500000       3.59400000       0.00000000 </v>
    <v>       0.00000000       0.00000000       6.72000000 </v>
   </varray>
   <i name="volume">    100.22947200 </i>
   <varray name="rec_basis" >
    <v>       0.24096386       0.13912076       0.00000000 </v>
    <v>       0.00000000       0.27824151       0.00000000 </v>
    <v>       0.00000000       0.00000000       0.14880952 </v>
   </varray>
  </crystal>
  <varray name="positions" >
   <v>       0.00000000       0.00000000       0.00000000 </v>
   <v>       0.00000000       0.00000000       0.50000000 </v>
   <v>       0.33333334       0.66666669       0.25000000 </v>
   <v>       0.66666666       0.33333331       0.75000000 </v>
  </varray>
 </structure>
</modeling>
